# vtk DataFile Version 2.0
Cube example
ASCII
DATASET UNSTRUCTURED_GRID
POINTS 2500 float 
0.00 0.00 0.00 
1.00 0.00 0.00 
2.00 0.00 0.00 
3.00 0.00 0.00 
4.00 0.00 0.00 
5.00 0.00 0.00 
6.00 0.00 0.00 
7.00 0.00 0.00 
8.00 0.00 0.00 
9.00 0.00 0.00 
10.00 0.00 0.00 
11.00 0.00 0.00 
12.00 0.00 0.00 
13.00 0.00 0.00 
14.00 0.00 0.00 
15.00 0.00 0.00 
16.00 0.00 0.00 
17.00 0.00 0.00 
18.00 0.00 0.00 
19.00 0.00 0.00 
20.00 0.00 0.00 
21.00 0.00 0.00 
22.00 0.00 0.00 
23.00 0.00 0.00 
24.00 0.00 0.00 
0.00 1.00 0.00 
1.00 1.00 0.00 
2.00 1.00 0.00 
3.00 1.00 0.00 
4.00 1.00 0.00 
5.00 1.00 0.00 
6.00 1.00 0.00 
7.00 1.00 0.00 
8.00 1.00 0.00 
9.00 1.00 0.00 
10.00 1.00 0.00 
11.00 1.00 0.00 
12.00 1.00 0.00 
13.00 1.00 0.00 
14.00 1.00 0.00 
15.00 1.00 0.00 
16.00 1.00 0.00 
17.00 1.00 0.00 
18.00 1.00 0.00 
19.00 1.00 0.00 
20.00 1.00 0.00 
21.00 1.00 0.00 
22.00 1.00 0.00 
23.00 1.00 0.00 
24.00 1.00 0.00 
0.00 2.00 0.00 
1.00 2.00 0.00 
2.00 2.00 0.00 
3.00 2.00 0.00 
4.00 2.00 0.00 
5.00 2.00 0.00 
6.00 2.00 0.00 
7.00 2.00 0.00 
8.00 2.00 0.00 
9.00 2.00 0.00 
10.00 2.00 0.00 
11.00 2.00 0.00 
12.00 2.00 0.00 
13.00 2.00 0.00 
14.00 2.00 0.00 
15.00 2.00 0.00 
16.00 2.00 0.00 
17.00 2.00 0.00 
18.00 2.00 0.00 
19.00 2.00 0.00 
20.00 2.00 0.00 
21.00 2.00 0.00 
22.00 2.00 0.00 
23.00 2.00 0.00 
24.00 2.00 0.00 
0.00 3.00 0.00 
1.00 3.00 0.00 
2.00 3.00 0.00 
3.00 3.00 0.00 
4.00 3.00 0.00 
5.00 3.00 0.00 
6.00 3.00 0.00 
7.00 3.00 0.00 
8.00 3.00 0.00 
9.00 3.00 0.00 
10.00 3.00 0.00 
11.00 3.00 0.00 
12.00 3.00 0.00 
13.00 3.00 0.00 
14.00 3.00 0.00 
15.00 3.00 0.00 
16.00 3.00 0.00 
17.00 3.00 0.00 
18.00 3.00 0.00 
19.00 3.00 0.00 
20.00 3.00 0.00 
21.00 3.00 0.00 
22.00 3.00 0.00 
23.00 3.00 0.00 
24.00 3.00 0.00 
0.00 4.00 0.00 
1.00 4.00 0.00 
2.00 4.00 0.00 
3.00 4.00 0.00 
4.00 4.00 0.00 
5.00 4.00 0.00 
6.00 4.00 0.00 
7.00 4.00 0.00 
8.00 4.00 0.00 
9.00 4.00 0.00 
10.00 4.00 0.00 
11.00 4.00 0.00 
12.00 4.00 0.00 
13.00 4.00 0.00 
14.00 4.00 0.00 
15.00 4.00 0.00 
16.00 4.00 0.00 
17.00 4.00 0.00 
18.00 4.00 0.00 
19.00 4.00 0.00 
20.00 4.00 0.00 
21.00 4.00 0.00 
22.00 4.00 0.00 
23.00 4.00 0.00 
24.00 4.00 0.00 
0.00 5.00 0.00 
1.00 5.00 0.00 
2.00 5.00 0.00 
3.00 5.00 0.00 
4.00 5.00 0.00 
5.00 5.00 0.00 
6.00 5.00 0.00 
7.00 5.00 0.00 
8.00 5.00 0.00 
9.00 5.00 0.00 
10.00 5.00 0.00 
11.00 5.00 0.00 
12.00 5.00 0.00 
13.00 5.00 0.00 
14.00 5.00 0.00 
15.00 5.00 0.00 
16.00 5.00 0.00 
17.00 5.00 0.00 
18.00 5.00 0.00 
19.00 5.00 0.00 
20.00 5.00 0.00 
21.00 5.00 0.00 
22.00 5.00 0.00 
23.00 5.00 0.00 
24.00 5.00 0.00 
0.00 6.00 0.00 
1.00 6.00 0.00 
2.00 6.00 0.00 
3.00 6.00 0.00 
4.00 6.00 0.00 
5.00 6.00 0.00 
6.00 6.00 0.00 
7.00 6.00 0.00 
8.00 6.00 0.00 
9.00 6.00 0.00 
10.00 6.00 0.00 
11.00 6.00 0.00 
12.00 6.00 0.00 
13.00 6.00 0.00 
14.00 6.00 0.00 
15.00 6.00 0.00 
16.00 6.00 0.00 
17.00 6.00 0.00 
18.00 6.00 0.00 
19.00 6.00 0.00 
20.00 6.00 0.00 
21.00 6.00 0.00 
22.00 6.00 0.00 
23.00 6.00 0.00 
24.00 6.00 0.00 
0.00 7.00 0.00 
1.00 7.00 0.00 
2.00 7.00 0.00 
3.00 7.00 0.00 
4.00 7.00 0.00 
5.00 7.00 0.00 
6.00 7.00 0.00 
7.00 7.00 0.00 
8.00 7.00 0.00 
9.00 7.00 0.00 
10.00 7.00 0.00 
11.00 7.00 0.00 
12.00 7.00 0.00 
13.00 7.00 0.00 
14.00 7.00 0.00 
15.00 7.00 0.00 
16.00 7.00 0.00 
17.00 7.00 0.00 
18.00 7.00 0.00 
19.00 7.00 0.00 
20.00 7.00 0.00 
21.00 7.00 0.00 
22.00 7.00 0.00 
23.00 7.00 0.00 
24.00 7.00 0.00 
0.00 8.00 0.00 
1.00 8.00 0.00 
2.00 8.00 0.00 
3.00 8.00 0.00 
4.00 8.00 0.00 
5.00 8.00 0.00 
6.00 8.00 0.00 
7.00 8.00 0.00 
8.00 8.00 0.00 
9.00 8.00 0.00 
10.00 8.00 0.00 
11.00 8.00 0.00 
12.00 8.00 0.00 
13.00 8.00 0.00 
14.00 8.00 0.00 
15.00 8.00 0.00 
16.00 8.00 0.00 
17.00 8.00 0.00 
18.00 8.00 0.00 
19.00 8.00 0.00 
20.00 8.00 0.00 
21.00 8.00 0.00 
22.00 8.00 0.00 
23.00 8.00 0.00 
24.00 8.00 0.00 
0.00 9.00 0.00 
1.00 9.00 0.00 
2.00 9.00 0.00 
3.00 9.00 0.00 
4.00 9.00 0.00 
5.00 9.00 0.00 
6.00 9.00 0.00 
7.00 9.00 0.00 
8.00 9.00 0.00 
9.00 9.00 0.00 
10.00 9.00 0.00 
11.00 9.00 0.00 
12.00 9.00 0.00 
13.00 9.00 0.00 
14.00 9.00 0.00 
15.00 9.00 0.00 
16.00 9.00 0.00 
17.00 9.00 0.00 
18.00 9.00 0.00 
19.00 9.00 0.00 
20.00 9.00 0.00 
21.00 9.00 0.00 
22.00 9.00 0.00 
23.00 9.00 0.00 
24.00 9.00 0.00 
0.00 10.00 0.00 
1.00 10.00 0.00 
2.00 10.00 0.00 
3.00 10.00 0.00 
4.00 10.00 0.00 
5.00 10.00 0.00 
6.00 10.00 0.00 
7.00 10.00 0.00 
8.00 10.00 0.00 
9.00 10.00 0.00 
10.00 10.00 0.00 
11.00 10.00 0.00 
12.00 10.00 0.00 
13.00 10.00 0.00 
14.00 10.00 0.00 
15.00 10.00 0.00 
16.00 10.00 0.00 
17.00 10.00 0.00 
18.00 10.00 0.00 
19.00 10.00 0.00 
20.00 10.00 0.00 
21.00 10.00 0.00 
22.00 10.00 0.00 
23.00 10.00 0.00 
24.00 10.00 0.00 
0.00 11.00 0.00 
1.00 11.00 0.00 
2.00 11.00 0.00 
3.00 11.00 0.00 
4.00 11.00 0.00 
5.00 11.00 0.00 
6.00 11.00 0.00 
7.00 11.00 0.00 
8.00 11.00 0.00 
9.00 11.00 0.00 
10.00 11.00 0.00 
11.00 11.00 0.00 
12.00 11.00 0.00 
13.00 11.00 0.00 
14.00 11.00 0.00 
15.00 11.00 0.00 
16.00 11.00 0.00 
17.00 11.00 0.00 
18.00 11.00 0.00 
19.00 11.00 0.00 
20.00 11.00 0.00 
21.00 11.00 0.00 
22.00 11.00 0.00 
23.00 11.00 0.00 
24.00 11.00 0.00 
0.00 12.00 0.00 
1.00 12.00 0.00 
2.00 12.00 0.00 
3.00 12.00 0.00 
4.00 12.00 0.00 
5.00 12.00 0.00 
6.00 12.00 0.00 
7.00 12.00 0.00 
8.00 12.00 0.00 
9.00 12.00 0.00 
10.00 12.00 0.00 
11.00 12.00 0.00 
12.00 12.00 0.00 
13.00 12.00 0.00 
14.00 12.00 0.00 
15.00 12.00 0.00 
16.00 12.00 0.00 
17.00 12.00 0.00 
18.00 12.00 0.00 
19.00 12.00 0.00 
20.00 12.00 0.00 
21.00 12.00 0.00 
22.00 12.00 0.00 
23.00 12.00 0.00 
24.00 12.00 0.00 
0.00 13.00 0.00 
1.00 13.00 0.00 
2.00 13.00 0.00 
3.00 13.00 0.00 
4.00 13.00 0.00 
5.00 13.00 0.00 
6.00 13.00 0.00 
7.00 13.00 0.00 
8.00 13.00 0.00 
9.00 13.00 0.00 
10.00 13.00 0.00 
11.00 13.00 0.00 
12.00 13.00 0.00 
13.00 13.00 0.00 
14.00 13.00 0.00 
15.00 13.00 0.00 
16.00 13.00 0.00 
17.00 13.00 0.00 
18.00 13.00 0.00 
19.00 13.00 0.00 
20.00 13.00 0.00 
21.00 13.00 0.00 
22.00 13.00 0.00 
23.00 13.00 0.00 
24.00 13.00 0.00 
0.00 14.00 0.00 
1.00 14.00 0.00 
2.00 14.00 0.00 
3.00 14.00 0.00 
4.00 14.00 0.00 
5.00 14.00 0.00 
6.00 14.00 0.00 
7.00 14.00 0.00 
8.00 14.00 0.00 
9.00 14.00 0.00 
10.00 14.00 0.00 
11.00 14.00 0.00 
12.00 14.00 0.00 
13.00 14.00 0.00 
14.00 14.00 0.00 
15.00 14.00 0.00 
16.00 14.00 0.00 
17.00 14.00 0.00 
18.00 14.00 0.00 
19.00 14.00 0.00 
20.00 14.00 0.00 
21.00 14.00 0.00 
22.00 14.00 0.00 
23.00 14.00 0.00 
24.00 14.00 0.00 
0.00 15.00 0.00 
1.00 15.00 0.00 
2.00 15.00 0.00 
3.00 15.00 0.00 
4.00 15.00 0.00 
5.00 15.00 0.00 
6.00 15.00 0.00 
7.00 15.00 0.00 
8.00 15.00 0.00 
9.00 15.00 0.00 
10.00 15.00 0.00 
11.00 15.00 0.00 
12.00 15.00 0.00 
13.00 15.00 0.00 
14.00 15.00 0.00 
15.00 15.00 0.00 
16.00 15.00 0.00 
17.00 15.00 0.00 
18.00 15.00 0.00 
19.00 15.00 0.00 
20.00 15.00 0.00 
21.00 15.00 0.00 
22.00 15.00 0.00 
23.00 15.00 0.00 
24.00 15.00 0.00 
0.00 16.00 0.00 
1.00 16.00 0.00 
2.00 16.00 0.00 
3.00 16.00 0.00 
4.00 16.00 0.00 
5.00 16.00 0.00 
6.00 16.00 0.00 
7.00 16.00 0.00 
8.00 16.00 0.00 
9.00 16.00 0.00 
10.00 16.00 0.00 
11.00 16.00 0.00 
12.00 16.00 0.00 
13.00 16.00 0.00 
14.00 16.00 0.00 
15.00 16.00 0.00 
16.00 16.00 0.00 
17.00 16.00 0.00 
18.00 16.00 0.00 
19.00 16.00 0.00 
20.00 16.00 0.00 
21.00 16.00 0.00 
22.00 16.00 0.00 
23.00 16.00 0.00 
24.00 16.00 0.00 
0.00 17.00 0.00 
1.00 17.00 0.00 
2.00 17.00 0.00 
3.00 17.00 0.00 
4.00 17.00 0.00 
5.00 17.00 0.00 
6.00 17.00 0.00 
7.00 17.00 0.00 
8.00 17.00 0.00 
9.00 17.00 0.00 
10.00 17.00 0.00 
11.00 17.00 0.00 
12.00 17.00 0.00 
13.00 17.00 0.00 
14.00 17.00 0.00 
15.00 17.00 0.00 
16.00 17.00 0.00 
17.00 17.00 0.00 
18.00 17.00 0.00 
19.00 17.00 0.00 
20.00 17.00 0.00 
21.00 17.00 0.00 
22.00 17.00 0.00 
23.00 17.00 0.00 
24.00 17.00 0.00 
0.00 18.00 0.00 
1.00 18.00 0.00 
2.00 18.00 0.00 
3.00 18.00 0.00 
4.00 18.00 0.00 
5.00 18.00 0.00 
6.00 18.00 0.00 
7.00 18.00 0.00 
8.00 18.00 0.00 
9.00 18.00 0.00 
10.00 18.00 0.00 
11.00 18.00 0.00 
12.00 18.00 0.00 
13.00 18.00 0.00 
14.00 18.00 0.00 
15.00 18.00 0.00 
16.00 18.00 0.00 
17.00 18.00 0.00 
18.00 18.00 0.00 
19.00 18.00 0.00 
20.00 18.00 0.00 
21.00 18.00 0.00 
22.00 18.00 0.00 
23.00 18.00 0.00 
24.00 18.00 0.00 
0.00 19.00 0.00 
1.00 19.00 0.00 
2.00 19.00 0.00 
3.00 19.00 0.00 
4.00 19.00 0.00 
5.00 19.00 0.00 
6.00 19.00 0.00 
7.00 19.00 0.00 
8.00 19.00 0.00 
9.00 19.00 0.00 
10.00 19.00 0.00 
11.00 19.00 0.00 
12.00 19.00 0.00 
13.00 19.00 0.00 
14.00 19.00 0.00 
15.00 19.00 0.00 
16.00 19.00 0.00 
17.00 19.00 0.00 
18.00 19.00 0.00 
19.00 19.00 0.00 
20.00 19.00 0.00 
21.00 19.00 0.00 
22.00 19.00 0.00 
23.00 19.00 0.00 
24.00 19.00 0.00 
0.00 20.00 0.00 
1.00 20.00 0.00 
2.00 20.00 0.00 
3.00 20.00 0.00 
4.00 20.00 0.00 
5.00 20.00 0.00 
6.00 20.00 0.00 
7.00 20.00 0.00 
8.00 20.00 0.00 
9.00 20.00 0.00 
10.00 20.00 0.00 
11.00 20.00 0.00 
12.00 20.00 0.00 
13.00 20.00 0.00 
14.00 20.00 0.00 
15.00 20.00 0.00 
16.00 20.00 0.00 
17.00 20.00 0.00 
18.00 20.00 0.00 
19.00 20.00 0.00 
20.00 20.00 0.00 
21.00 20.00 0.00 
22.00 20.00 0.00 
23.00 20.00 0.00 
24.00 20.00 0.00 
0.00 21.00 0.00 
1.00 21.00 0.00 
2.00 21.00 0.00 
3.00 21.00 0.00 
4.00 21.00 0.00 
5.00 21.00 0.00 
6.00 21.00 0.00 
7.00 21.00 0.00 
8.00 21.00 0.00 
9.00 21.00 0.00 
10.00 21.00 0.00 
11.00 21.00 0.00 
12.00 21.00 0.00 
13.00 21.00 0.00 
14.00 21.00 0.00 
15.00 21.00 0.00 
16.00 21.00 0.00 
17.00 21.00 0.00 
18.00 21.00 0.00 
19.00 21.00 0.00 
20.00 21.00 0.00 
21.00 21.00 0.00 
22.00 21.00 0.00 
23.00 21.00 0.00 
24.00 21.00 0.00 
0.00 22.00 0.00 
1.00 22.00 0.00 
2.00 22.00 0.00 
3.00 22.00 0.00 
4.00 22.00 0.00 
5.00 22.00 0.00 
6.00 22.00 0.00 
7.00 22.00 0.00 
8.00 22.00 0.00 
9.00 22.00 0.00 
10.00 22.00 0.00 
11.00 22.00 0.00 
12.00 22.00 0.00 
13.00 22.00 0.00 
14.00 22.00 0.00 
15.00 22.00 0.00 
16.00 22.00 0.00 
17.00 22.00 0.00 
18.00 22.00 0.00 
19.00 22.00 0.00 
20.00 22.00 0.00 
21.00 22.00 0.00 
22.00 22.00 0.00 
23.00 22.00 0.00 
24.00 22.00 0.00 
0.00 23.00 0.00 
1.00 23.00 0.00 
2.00 23.00 0.00 
3.00 23.00 0.00 
4.00 23.00 0.00 
5.00 23.00 0.00 
6.00 23.00 0.00 
7.00 23.00 0.00 
8.00 23.00 0.00 
9.00 23.00 0.00 
10.00 23.00 0.00 
11.00 23.00 0.00 
12.00 23.00 0.00 
13.00 23.00 0.00 
14.00 23.00 0.00 
15.00 23.00 0.00 
16.00 23.00 0.00 
17.00 23.00 0.00 
18.00 23.00 0.00 
19.00 23.00 0.00 
20.00 23.00 0.00 
21.00 23.00 0.00 
22.00 23.00 0.00 
23.00 23.00 0.00 
24.00 23.00 0.00 
0.00 24.00 0.00 
1.00 24.00 0.00 
2.00 24.00 0.00 
3.00 24.00 0.00 
4.00 24.00 0.00 
5.00 24.00 0.00 
6.00 24.00 0.00 
7.00 24.00 0.00 
8.00 24.00 0.00 
9.00 24.00 0.00 
10.00 24.00 0.00 
11.00 24.00 0.00 
12.00 24.00 0.00 
13.00 24.00 0.00 
14.00 24.00 0.00 
15.00 24.00 0.00 
16.00 24.00 0.00 
17.00 24.00 0.00 
18.00 24.00 0.00 
19.00 24.00 0.00 
20.00 24.00 0.00 
21.00 24.00 0.00 
22.00 24.00 0.00 
23.00 24.00 0.00 
24.00 24.00 0.00 
0.01 0.00 0.34 
1.01 0.01 0.33 
2.00 0.01 0.34 
3.00 0.01 0.34 
4.00 0.01 0.34 
5.00 0.01 0.34 
6.00 0.01 0.34 
7.00 0.01 0.34 
8.00 0.01 0.34 
9.00 0.01 0.34 
10.00 0.01 0.34 
11.00 0.01 0.34 
12.00 0.01 0.34 
13.00 0.01 0.34 
14.00 0.01 0.34 
15.00 0.01 0.34 
16.00 0.01 0.34 
17.00 0.01 0.34 
18.00 0.01 0.34 
19.00 0.01 0.34 
20.00 0.01 0.33 
21.00 0.00 0.33 
22.00 0.00 0.33 
23.00 -0.00 0.33 
24.00 -0.00 0.33 
0.01 1.00 0.33 
1.01 1.01 0.33 
2.01 1.02 0.34 
3.01 1.02 0.34 
4.01 1.02 0.34 
5.01 1.02 0.34 
6.01 1.01 0.34 
7.01 1.02 0.34 
8.01 1.02 0.34 
9.01 1.01 0.34 
10.01 1.01 0.34 
11.01 1.01 0.34 
12.01 1.01 0.34 
13.01 1.01 0.33 
14.01 1.02 0.34 
15.01 1.02 0.34 
16.01 1.02 0.34 
17.01 1.02 0.34 
18.01 1.01 0.34 
19.01 1.02 0.34 
20.01 1.01 0.33 
21.01 1.01 0.33 
22.00 1.00 0.33 
23.00 1.00 0.33 
24.00 1.00 0.33 
0.01 2.00 0.33 
1.01 2.01 0.33 
2.01 2.03 0.34 
3.02 2.03 0.34 
4.02 2.03 0.34 
5.02 2.03 0.34 
6.02 2.03 0.34 
7.03 2.03 0.34 
8.04 2.02 0.34 
9.04 2.02 0.33 
10.03 2.03 0.33 
11.03 2.02 0.34 
12.02 2.02 0.34 
13.02 2.03 0.34 
14.02 2.03 0.34 
15.02 2.03 0.34 
16.02 2.02 0.34 
17.03 2.02 0.34 
18.03 2.02 0.33 
19.03 2.03 0.34 
20.03 2.02 0.33 
21.02 2.01 0.34 
22.02 2.01 0.34 
23.01 2.00 0.33 
24.01 2.00 0.33 
0.01 3.00 0.34 
1.01 3.01 0.33 
2.01 3.04 0.33 
3.02 3.04 0.33 
4.03 3.04 0.33 
5.03 3.04 0.33 
6.03 3.04 0.34 
7.04 3.03 0.33 
8.05 3.03 0.33 
9.05 3.04 0.34 
10.04 3.03 0.33 
11.04 3.03 0.33 
12.03 3.04 0.33 
13.02 3.03 0.33 
14.03 3.03 0.33 
15.03 3.03 0.33 
16.03 3.02 0.33 
17.03 3.02 0.33 
18.03 3.03 0.34 
19.04 3.03 0.33 
20.04 3.03 0.33 
21.03 3.03 0.33 
22.02 3.02 0.33 
23.01 3.01 0.33 
24.01 3.00 0.33 
0.01 4.00 0.33 
1.01 4.01 0.34 
2.02 4.04 0.34 
3.03 4.03 0.33 
4.04 4.04 0.33 
5.04 4.04 0.34 
6.04 4.04 0.33 
7.04 4.03 0.33 
8.04 4.03 0.34 
9.04 4.04 0.34 
10.04 4.04 0.33 
11.03 4.04 0.33 
12.03 4.04 0.34 
13.03 4.03 0.33 
14.03 4.03 0.33 
15.04 4.03 0.33 
16.04 4.03 0.34 
17.03 4.02 0.33 
18.03 4.03 0.34 
19.03 4.04 0.34 
20.04 4.04 0.34 
21.04 4.03 0.34 
22.03 4.03 0.33 
23.02 4.01 0.33 
24.01 4.00 0.33 
0.01 5.00 0.34 
1.01 5.01 0.34 
2.03 5.04 0.33 
3.03 5.03 0.34 
4.04 5.03 0.33 
5.04 5.04 0.33 
6.04 5.04 0.33 
7.04 5.03 0.33 
8.04 5.04 0.34 
9.03 5.04 0.33 
10.03 5.05 0.34 
11.03 5.04 0.33 
12.03 5.04 0.33 
13.03 5.03 0.34 
14.03 5.03 0.33 
15.03 5.02 0.34 
16.04 5.03 0.34 
17.04 5.03 0.33 
18.04 5.04 0.34 
19.04 5.04 0.33 
20.04 5.04 0.33 
21.03 5.04 0.33 
22.02 5.04 0.33 
23.01 5.01 0.33 
24.01 5.00 0.33 
0.01 6.00 0.34 
1.02 6.01 0.34 
2.03 6.03 0.34 
3.04 6.04 0.34 
4.04 6.02 0.33 
5.04 6.03 0.33 
6.04 6.03 0.33 
7.04 6.03 0.34 
8.03 6.04 0.34 
9.03 6.05 0.33 
10.04 6.05 0.33 
11.04 6.04 0.34 
12.04 6.04 0.33 
13.04 6.04 0.33 
14.04 6.04 0.34 
15.03 6.03 0.33 
16.03 6.03 0.33 
17.03 6.04 0.34 
18.03 6.04 0.34 
19.03 6.04 0.33 
20.03 6.04 0.33 
21.03 6.04 0.33 
22.02 6.04 0.33 
23.02 6.01 0.33 
24.01 6.00 0.33 
0.01 7.00 0.34 
1.01 7.01 0.33 
2.02 7.03 0.33 
3.04 7.03 0.34 
4.05 7.03 0.34 
5.05 7.03 0.34 
6.04 7.04 0.34 
7.03 7.04 0.33 
8.03 7.04 0.33 
9.03 7.04 0.34 
10.04 7.04 0.33 
11.04 7.04 0.33 
12.04 7.04 0.34 
13.04 7.04 0.33 
14.04 7.04 0.33 
15.03 7.03 0.33 
16.02 7.04 0.33 
17.02 7.04 0.33 
18.03 7.04 0.34 
19.04 7.04 0.34 
20.03 7.04 0.33 
21.03 7.03 0.33 
22.02 7.03 0.33 
23.01 7.01 0.33 
24.01 7.00 0.33 
0.01 8.00 0.34 
1.02 8.01 0.34 
2.02 8.02 0.33 
3.04 8.02 0.33 
4.04 8.02 0.34 
5.04 8.04 0.33 
6.04 8.04 0.34 
7.03 8.04 0.34 
8.03 8.04 0.33 
9.03 8.03 0.34 
10.04 8.03 0.33 
11.04 8.04 0.34 
12.04 8.05 0.33 
13.03 8.04 0.33 
14.03 8.04 0.34 
15.03 8.04 0.33 
16.03 8.04 0.33 
17.03 8.04 0.34 
18.04 8.04 0.33 
19.05 8.04 0.33 
20.05 8.04 0.34 
21.04 8.03 0.33 
22.03 8.03 0.33 
23.01 8.01 0.33 
24.01 8.00 0.33 
0.01 9.00 0.34 
1.02 9.01 0.34 
2.03 9.02 0.34 
3.03 9.02 0.33 
4.03 9.03 0.33 
5.03 9.04 0.34 
6.04 9.04 0.33 
7.05 9.05 0.33 
8.04 9.04 0.33 
9.03 9.03 0.33 
10.03 9.03 0.33 
11.03 9.05 0.33 
12.03 9.05 0.34 
13.03 9.03 0.33 
14.03 9.03 0.33 
15.04 9.03 0.33 
16.04 9.04 0.33 
17.04 9.04 0.34 
18.03 9.03 0.33 
19.04 9.03 0.33 
20.04 9.04 0.33 
21.04 9.04 0.33 
22.03 9.04 0.33 
23.02 9.01 0.33 
24.01 9.00 0.33 
0.02 10.00 0.34 
1.02 10.01 0.34 
2.03 10.02 0.34 
3.03 10.03 0.33 
4.04 10.04 0.34 
5.04 10.04 0.33 
6.04 10.03 0.33 
7.04 10.04 0.33 
8.04 10.04 0.33 
9.04 10.03 0.33 
10.04 10.03 0.33 
11.03 10.05 0.33 
12.03 10.05 0.33 
13.03 10.02 0.33 
14.04 10.03 0.33 
15.04 10.02 0.33 
16.04 10.04 0.33 
17.04 10.04 0.33 
18.04 10.03 0.33 
19.03 10.03 0.33 
20.03 10.04 0.34 
21.03 10.04 0.34 
22.02 10.04 0.33 
23.02 10.01 0.33 
24.01 10.00 0.33 
0.01 11.00 0.34 
1.02 11.01 0.33 
2.02 11.03 0.34 
3.02 11.03 0.34 
4.03 11.03 0.34 
5.03 11.04 0.33 
6.03 11.04 0.33 
7.02 11.04 0.34 
8.03 11.03 0.33 
9.04 11.02 0.33 
10.03 11.03 0.33 
11.04 11.04 0.33 
12.05 11.04 0.33 
13.05 11.02 0.33 
14.05 11.02 0.33 
15.04 11.03 0.34 
16.04 11.03 0.33 
17.04 11.03 0.33 
18.05 11.04 0.34 
19.04 11.04 0.33 
20.03 11.04 0.33 
21.03 11.04 0.33 
22.03 11.03 0.33 
23.02 11.01 0.33 
24.02 11.00 0.33 
0.01 12.00 0.34 
1.02 12.01 0.34 
2.02 12.03 0.33 
3.02 12.03 0.33 
4.02 12.03 0.33 
5.02 12.04 0.33 
6.03 12.04 0.34 
7.03 12.03 0.33 
8.03 12.03 0.33 
9.03 12.02 0.33 
10.03 12.03 0.34 
11.03 12.03 0.34 
12.03 12.03 0.33 
13.04 12.02 0.34 
14.04 12.02 0.34 
15.04 12.03 0.33 
16.03 12.03 0.33 
17.03 12.03 0.33 
18.03 12.03 0.33 
19.03 12.04 0.34 
20.03 12.05 0.34 
21.04 12.04 0.33 
22.03 12.02 0.33 
23.02 12.01 0.33 
24.02 12.00 0.33 
0.01 13.00 0.34 
1.02 13.01 0.34 
2.03 13.03 0.33 
3.03 13.04 0.33 
4.02 13.03 0.34 
5.03 13.03 0.33 
6.04 13.04 0.33 
7.04 13.03 0.33 
8.03 13.03 0.33 
9.03 13.02 0.34 
10.03 13.03 0.33 
11.03 13.03 0.33 
12.03 13.03 0.34 
13.03 13.03 0.34 
14.03 13.03 0.34 
15.03 13.04 0.33 
16.03 13.03 0.33 
17.03 13.02 0.33 
18.03 13.03 0.33 
19.03 13.04 0.33 
20.04 13.05 0.34 
21.03 13.03 0.33 
22.03 13.03 0.33 
23.02 13.01 0.33 
24.01 13.00 0.33 
0.01 14.00 0.34 
1.02 14.01 0.34 
2.03 14.03 0.34 
3.03 14.04 0.34 
4.03 14.04 0.34 
5.03 14.03 0.33 
6.03 14.03 0.33 
7.04 14.03 0.33 
8.04 14.03 0.34 
9.04 14.02 0.33 
10.04 14.03 0.33 
11.04 14.04 0.33 
12.04 14.04 0.33 
13.03 14.03 0.33 
14.03 14.03 0.34 
15.04 14.04 0.34 
16.04 14.03 0.33 
17.04 14.02 0.33 
18.03 14.03 0.33 
19.03 14.04 0.34 
20.03 14.04 0.33 
21.03 14.03 0.33 
22.03 14.03 0.33 
23.02 14.01 0.33 
24.01 14.00 0.33 
0.01 15.00 0.34 
1.02 15.01 0.34 
2.02 15.03 0.34 
3.03 15.04 0.33 
4.03 15.04 0.33 
5.03 15.03 0.33 
6.03 15.03 0.34 
7.03 15.02 0.33 
8.03 15.03 0.33 
9.03 15.03 0.34 
10.04 15.03 0.34 
11.04 15.04 0.34 
12.04 15.04 0.33 
13.03 15.04 0.33 
14.03 15.03 0.34 
15.04 15.04 0.34 
16.05 15.03 0.33 
17.04 15.03 0.33 
18.04 15.04 0.33 
19.03 15.04 0.33 
20.04 15.04 0.33 
21.04 15.03 0.33 
22.03 15.03 0.33 
23.02 15.01 0.33 
24.02 15.00 0.33 
0.01 16.00 0.34 
1.02 16.01 0.34 
2.02 16.03 0.34 
3.03 16.04 0.33 
4.04 16.04 0.33 
5.04 16.04 0.33 
6.03 16.04 0.34 
7.03 16.03 0.33 
8.02 16.03 0.33 
9.02 16.03 0.34 
10.03 16.04 0.34 
11.03 16.04 0.33 
12.03 16.04 0.34 
13.04 16.04 0.33 
14.04 16.03 0.33 
15.03 16.03 0.33 
16.04 16.03 0.33 
17.04 16.03 0.34 
18.03 16.04 0.34 
19.04 16.04 0.33 
20.04 16.03 0.33 
21.04 16.03 0.33 
22.03 16.02 0.33 
23.02 16.01 0.33 
24.02 16.00 0.33 
0.01 17.00 0.34 
1.02 17.01 0.34 
2.03 17.03 0.34 
3.04 17.03 0.34 
4.04 17.04 0.33 
5.03 17.04 0.33 
6.03 17.04 0.34 
7.03 17.03 0.34 
8.03 17.04 0.34 
9.03 17.03 0.33 
10.03 17.03 0.33 
11.03 17.04 0.33 
12.02 17.04 0.33 
13.03 17.03 0.33 
14.03 17.03 0.33 
15.03 17.03 0.33 
16.03 17.03 0.33 
17.03 17.04 0.34 
18.03 17.04 0.33 
19.04 17.04 0.33 
20.04 17.03 0.33 
21.04 17.02 0.33 
22.03 17.02 0.33 
23.02 17.01 0.33 
24.02 17.00 0.33 
0.01 18.00 0.34 
1.02 18.01 0.34 
2.03 18.02 0.33 
3.03 18.04 0.33 
4.03 18.05 0.34 
5.04 18.04 0.33 
6.04 18.04 0.33 
7.03 18.04 0.33 
8.03 18.04 0.34 
9.03 18.03 0.34 
10.03 18.03 0.33 
11.03 18.04 0.34 
12.02 18.04 0.33 
13.02 18.03 0.33 
14.02 18.03 0.33 
15.02 18.03 0.34 
16.02 18.03 0.33 
17.03 18.04 0.33 
18.03 18.03 0.33 
19.04 18.03 0.33 
20.04 18.02 0.33 
21.04 18.02 0.33 
22.03 18.03 0.33 
23.02 18.01 0.33 
24.01 18.00 0.33 
0.01 19.00 0.34 
1.02 19.00 0.34 
2.02 19.03 0.34 
3.02 19.04 0.33 
4.03 19.04 0.33 
5.04 19.03 0.34 
6.05 19.04 0.33 
7.05 19.05 0.33 
8.04 19.04 0.33 
9.04 19.03 0.33 
10.03 19.04 0.34 
11.03 19.04 0.33 
12.04 19.04 0.33 
13.03 19.03 0.33 
14.03 19.03 0.33 
15.03 19.03 0.33 
16.03 19.03 0.33 
17.03 19.03 0.34 
18.04 19.03 0.34 
19.04 19.02 0.33 
20.03 19.02 0.33 
21.03 19.03 0.33 
22.02 19.03 0.33 
23.01 19.01 0.33 
24.01 19.00 0.33 
0.01 20.00 0.34 
1.01 20.01 0.33 
2.01 20.03 0.34 
3.02 20.03 0.33 
4.04 20.03 0.34 
5.04 20.03 0.33 
6.04 20.03 0.33 
7.04 20.04 0.33 
8.04 20.04 0.33 
9.04 20.04 0.33 
10.04 20.03 0.33 
11.04 20.04 0.33 
12.04 20.03 0.33 
13.04 20.03 0.33 
14.04 20.03 0.34 
15.04 20.03 0.33 
16.04 20.03 0.33 
17.03 20.03 0.33 
18.03 20.03 0.34 
19.03 20.03 0.33 
20.03 20.02 0.33 
21.03 20.03 0.33 
22.03 20.02 0.33 
23.02 20.01 0.33 
24.01 20.00 0.33 
0.00 21.00 0.33 
1.01 21.01 0.34 
2.02 21.03 0.33 
3.03 21.02 0.33 
4.04 21.03 0.33 
5.04 21.03 0.33 
6.04 21.03 0.33 
7.03 21.03 0.33 
8.03 21.04 0.33 
9.03 21.03 0.34 
10.03 21.03 0.33 
11.04 21.03 0.33 
12.04 21.03 0.34 
13.04 21.03 0.33 
14.03 21.03 0.33 
15.03 21.02 0.33 
16.03 21.02 0.33 
17.03 21.03 0.33 
18.02 21.03 0.33 
19.03 21.02 0.33 
20.03 21.02 0.34 
21.03 21.03 0.33 
22.02 21.03 0.33 
23.01 21.01 0.33 
24.01 21.00 0.33 
0.00 22.00 0.33 
1.00 22.00 0.33 
2.01 22.01 0.33 
3.02 22.01 0.33 
4.03 22.02 0.33 
5.03 22.02 0.33 
6.03 22.03 0.33 
7.03 22.02 0.33 
8.02 22.02 0.33 
9.03 22.02 0.33 
10.03 22.02 0.33 
11.03 22.03 0.33 
12.03 22.03 0.33 
13.03 22.03 0.33 
14.03 22.02 0.33 
15.02 22.02 0.33 
16.02 22.01 0.33 
17.02 22.02 0.33 
18.03 22.03 0.33 
19.03 22.01 0.33 
20.03 22.01 0.33 
21.03 22.03 0.33 
22.02 22.02 0.33 
23.01 22.01 0.33 
24.01 22.00 0.33 
0.00 23.00 0.33 
1.00 23.00 0.33 
2.00 23.00 0.33 
3.00 23.01 0.33 
4.01 23.01 0.33 
5.01 23.01 0.33 
6.01 23.02 0.33 
7.01 23.02 0.33 
8.01 23.01 0.33 
9.01 23.01 0.33 
10.01 23.01 0.33 
11.01 23.02 0.33 
12.01 23.02 0.33 
13.01 23.02 0.33 
14.01 23.01 0.33 
15.01 23.01 0.33 
16.01 23.01 0.33 
17.00 23.01 0.33 
18.01 23.01 0.33 
19.01 23.01 0.33 
20.01 23.01 0.33 
21.01 23.02 0.33 
22.01 23.02 0.33 
23.01 23.01 0.33 
24.01 23.00 0.33 
-0.00 24.00 0.33 
1.00 24.00 0.33 
2.00 24.00 0.33 
3.00 24.00 0.33 
4.00 24.00 0.33 
5.00 24.01 0.33 
6.00 24.01 0.33 
7.00 24.01 0.33 
8.00 24.01 0.33 
9.00 24.01 0.33 
10.00 24.01 0.33 
11.00 24.01 0.33 
12.00 24.01 0.33 
13.00 24.01 0.33 
14.00 24.01 0.33 
15.00 24.01 0.33 
16.00 24.01 0.33 
17.00 24.01 0.33 
18.00 24.01 0.33 
19.00 24.01 0.33 
20.00 24.01 0.33 
21.00 24.01 0.33 
22.00 24.01 0.33 
23.01 24.01 0.33 
24.01 24.00 0.33 
0.01 0.01 0.67 
1.01 0.01 0.67 
2.01 0.02 0.67 
3.00 0.02 0.67 
4.00 0.02 0.67 
5.00 0.02 0.67 
6.00 0.02 0.67 
7.00 0.02 0.67 
8.00 0.02 0.67 
9.00 0.02 0.67 
10.00 0.01 0.67 
11.00 0.01 0.67 
12.00 0.01 0.67 
13.00 0.02 0.67 
14.00 0.02 0.67 
15.00 0.02 0.67 
16.00 0.02 0.67 
17.00 0.02 0.67 
18.00 0.02 0.67 
19.00 0.01 0.67 
20.00 0.01 0.67 
21.00 0.01 0.67 
22.00 0.00 0.67 
23.00 -0.00 0.67 
24.00 -0.00 0.67 
0.01 1.01 0.67 
1.01 1.01 0.67 
2.01 1.04 0.67 
3.01 1.04 0.67 
4.01 1.04 0.67 
5.01 1.03 0.67 
6.01 1.03 0.67 
7.01 1.04 0.67 
8.01 1.04 0.67 
9.01 1.02 0.67 
10.01 1.03 0.67 
11.01 1.03 0.67 
12.01 1.02 0.67 
13.01 1.02 0.67 
14.01 1.04 0.67 
15.01 1.03 0.67 
16.01 1.03 0.67 
17.01 1.03 0.67 
18.02 1.02 0.67 
19.01 1.03 0.67 
20.01 1.02 0.67 
21.01 1.01 0.67 
22.01 1.01 0.67 
23.00 1.00 0.67 
24.00 1.00 0.67 
0.01 2.00 0.67 
1.02 2.02 0.67 
2.03 2.07 0.67 
3.04 2.07 0.68 
4.05 2.06 0.67 
5.06 2.05 0.67 
6.05 2.05 0.67 
7.06 2.06 0.67 
8.08 2.06 0.67 
9.08 2.05 0.66 
10.06 2.06 0.67 
11.06 2.04 0.67 
12.05 2.05 0.67 
13.03 2.06 0.67 
14.04 2.06 0.67 
15.04 2.06 0.67 
16.04 2.05 0.67 
17.07 2.04 0.67 
18.07 2.05 0.67 
19.07 2.06 0.67 
20.06 2.04 0.67 
21.05 2.03 0.67 
22.04 2.02 0.67 
23.02 2.00 0.66 
24.01 2.00 0.67 
0.01 3.00 0.67 
1.01 3.02 0.67 
2.02 3.09 0.67 
3.04 3.08 0.67 
4.06 3.07 0.67 
5.05 3.07 0.67 
6.06 3.08 0.68 
7.08 3.05 0.67 
8.09 3.05 0.66 
9.09 3.08 0.67 
10.08 3.07 0.66 
11.08 3.05 0.66 
12.05 3.08 0.66 
13.04 3.07 0.67 
14.05 3.05 0.66 
15.05 3.07 0.66 
16.05 3.05 0.66 
17.05 3.03 0.66 
18.06 3.05 0.67 
19.09 3.06 0.67 
20.07 3.07 0.66 
21.05 3.06 0.67 
22.04 3.05 0.67 
23.02 3.01 0.67 
24.01 3.00 0.66 
0.01 4.00 0.67 
1.02 4.02 0.67 
2.05 4.09 0.67 
3.07 4.06 0.66 
4.07 4.07 0.66 
5.08 4.10 0.68 
6.08 4.09 0.66 
7.07 4.05 0.66 
8.07 4.05 0.67 
9.08 4.10 0.67 
10.08 4.08 0.67 
11.05 4.07 0.66 
12.05 4.08 0.67 
13.08 4.06 0.67 
14.07 4.05 0.66 
15.07 4.05 0.66 
16.08 4.06 0.67 
17.06 4.04 0.67 
18.06 4.05 0.67 
19.07 4.08 0.67 
20.06 4.09 0.67 
21.08 4.07 0.68 
22.07 4.07 0.66 
23.03 4.01 0.66 
24.01 4.00 0.67 
0.01 5.00 0.67 
1.03 5.02 0.67 
2.05 5.08 0.67 
3.06 5.05 0.67 
4.07 5.06 0.67 
5.09 5.08 0.66 
6.09 5.08 0.66 
7.07 5.05 0.67 
8.08 5.07 0.67 
9.07 5.09 0.66 
10.06 5.10 0.67 
11.05 5.09 0.67 
12.06 5.08 0.66 
13.06 5.06 0.67 
14.06 5.06 0.67 
15.06 5.04 0.67 
16.08 5.07 0.67 
17.08 5.06 0.66 
18.07 5.08 0.67 
19.08 5.09 0.67 
20.09 5.09 0.66 
21.07 5.08 0.66 
22.04 5.09 0.67 
23.02 5.02 0.67 
24.02 5.00 0.66 
0.01 6.00 0.67 
1.03 6.01 0.67 
2.06 6.07 0.67 
3.09 6.08 0.67 
4.09 6.04 0.66 
5.09 6.06 0.66 
6.07 6.06 0.66 
7.06 6.06 0.67 
8.08 6.09 0.67 
9.07 6.08 0.66 
10.07 6.11 0.67 
11.08 6.07 0.67 
12.09 6.07 0.66 
13.08 6.08 0.67 
14.08 6.08 0.68 
15.08 6.04 0.67 
16.05 6.06 0.66 
17.05 6.07 0.67 
18.07 6.09 0.67 
19.08 6.07 0.67 
20.06 6.07 0.66 
21.06 6.07 0.67 
22.06 6.08 0.66 
23.04 6.02 0.66 
24.02 6.00 0.67 
0.02 7.00 0.67 
1.02 7.01 0.67 
2.03 7.06 0.67 
3.07 7.07 0.67 
4.10 7.04 0.67 
5.10 7.07 0.67 
6.08 7.07 0.67 
7.06 7.07 0.66 
8.05 7.07 0.66 
9.05 7.08 0.67 
10.07 7.10 0.66 
11.09 7.08 0.67 
12.08 7.08 0.67 
13.07 7.09 0.66 
14.07 7.09 0.66 
15.07 7.07 0.67 
16.05 7.07 0.67 
17.04 7.08 0.66 
18.06 7.09 0.67 
19.08 7.09 0.68 
20.07 7.07 0.66 
21.05 7.06 0.67 
22.04 7.07 0.67 
23.03 7.02 0.66 
24.02 7.00 0.66 
0.02 8.01 0.67 
1.03 8.01 0.67 
2.06 8.04 0.67 
3.07 8.05 0.66 
4.09 8.04 0.68 
5.08 8.09 0.66 
6.07 8.09 0.67 
7.07 8.09 0.67 
8.06 8.06 0.67 
9.07 8.07 0.67 
10.08 8.06 0.66 
11.09 8.09 0.67 
12.08 8.10 0.66 
13.06 8.07 0.66 
14.07 8.08 0.67 
15.07 8.08 0.66 
16.06 8.08 0.66 
17.06 8.07 0.67 
18.09 8.07 0.67 
19.11 8.09 0.66 
20.11 8.10 0.67 
21.08 8.07 0.66 
22.05 8.07 0.66 
23.02 8.02 0.66 
24.02 8.00 0.67 
0.02 9.00 0.67 
1.03 9.01 0.67 
2.07 9.04 0.67 
3.07 9.05 0.67 
4.06 9.06 0.66 
5.07 9.10 0.67 
6.09 9.08 0.66 
7.09 9.10 0.66 
8.07 9.09 0.67 
9.06 9.05 0.66 
10.06 9.05 0.67 
11.05 9.10 0.67 
12.05 9.11 0.67 
13.06 9.05 0.67 
14.07 9.08 0.66 
15.08 9.05 0.67 
16.08 9.08 0.66 
17.06 9.08 0.67 
18.07 9.05 0.67 
19.07 9.06 0.66 
20.08 9.09 0.66 
21.09 9.07 0.67 
22.06 9.08 0.66 
23.03 9.02 0.66 
24.02 9.00 0.67 
0.02 10.00 0.67 
1.04 10.01 0.67 
2.07 10.05 0.67 
3.07 10.06 0.67 
4.07 10.07 0.68 
5.09 10.09 0.66 
6.08 10.05 0.66 
7.08 10.09 0.66 
8.09 10.09 0.66 
9.08 10.05 0.66 
10.07 10.05 0.66 
11.07 10.11 0.67 
12.07 10.10 0.67 
13.06 10.04 0.66 
14.06 10.06 0.67 
15.08 10.03 0.66 
16.07 10.07 0.66 
17.08 10.08 0.67 
18.07 10.06 0.66 
19.05 10.05 0.67 
20.06 10.06 0.67 
21.07 10.09 0.67 
22.05 10.08 0.65 
23.03 10.01 0.67 
24.02 10.00 0.66 
0.02 11.00 0.67 
1.03 11.01 0.67 
2.04 11.07 0.67 
3.05 11.07 0.67 
4.06 11.08 0.67 
5.06 11.08 0.66 
6.04 11.06 0.67 
7.03 11.08 0.67 
8.06 11.06 0.67 
9.08 11.05 0.67 
10.07 11.05 0.66 
11.08 11.09 0.66 
12.10 11.08 0.66 
13.10 11.04 0.67 
14.10 11.04 0.66 
15.09 11.05 0.67 
16.08 11.06 0.67 
17.09 11.07 0.66 
18.10 11.08 0.67 
19.09 11.07 0.67 
20.07 11.08 0.67 
21.06 11.09 0.67 
22.07 11.05 0.66 
23.04 11.01 0.66 
24.02 11.00 0.67 
0.02 12.00 0.67 
1.03 12.02 0.67 
2.05 12.07 0.67 
3.05 12.07 0.66 
4.04 12.06 0.66 
5.04 12.08 0.66 
6.05 12.09 0.68 
7.06 12.08 0.66 
8.05 12.05 0.67 
9.05 12.04 0.66 
10.05 12.06 0.67 
11.06 12.07 0.67 
12.06 12.06 0.66 
13.06 12.04 0.67 
14.08 12.04 0.67 
15.08 12.08 0.67 
16.06 12.07 0.67 
17.05 12.05 0.66 
18.05 12.07 0.66 
19.06 12.09 0.67 
20.07 12.10 0.67 
21.08 12.08 0.66 
22.08 12.05 0.67 
23.04 12.01 0.66 
24.02 12.00 0.67 
0.02 13.00 0.67 
1.03 13.01 0.67 
2.06 13.06 0.66 
3.06 13.07 0.66 
4.04 13.06 0.67 
5.05 13.06 0.67 
6.08 13.08 0.67 
7.08 13.06 0.66 
8.06 13.07 0.66 
9.06 13.04 0.67 
10.08 13.05 0.67 
11.06 13.08 0.66 
12.05 13.07 0.67 
13.07 13.05 0.67 
14.07 13.05 0.67 
15.06 13.08 0.66 
16.07 13.07 0.67 
17.07 13.04 0.67 
18.07 13.06 0.67 
19.06 13.08 0.66 
20.07 13.10 0.67 
21.08 13.06 0.67 
22.06 13.06 0.66 
23.03 13.01 0.67 
24.02 13.00 0.66 
0.02 14.00 0.67 
1.04 14.01 0.67 
2.07 14.05 0.67 
3.07 14.08 0.67 
4.08 14.08 0.67 
5.07 14.06 0.67 
6.07 14.07 0.66 
7.07 14.06 0.67 
8.08 14.07 0.67 
9.10 14.05 0.67 
10.08 14.05 0.66 
11.08 14.08 0.67 
12.08 14.08 0.67 
13.06 14.07 0.67 
14.07 14.07 0.67 
15.08 14.07 0.67 
16.08 14.06 0.67 
17.09 14.04 0.66 
18.06 14.08 0.67 
19.05 14.07 0.67 
20.07 14.09 0.66 
21.07 14.06 0.67 
22.05 14.05 0.67 
23.03 14.01 0.66 
24.02 14.00 0.66 
0.02 15.00 0.67 
1.03 15.01 0.67 
2.05 15.05 0.67 
3.06 15.09 0.66 
4.05 15.09 0.66 
5.04 15.07 0.66 
6.04 15.06 0.67 
7.06 15.05 0.67 
8.06 15.06 0.66 
9.06 15.06 0.67 
10.07 15.07 0.67 
11.08 15.08 0.67 
12.07 15.09 0.66 
13.05 15.09 0.67 
14.06 15.06 0.67 
15.08 15.08 0.67 
16.09 15.06 0.67 
17.09 15.04 0.67 
18.07 15.09 0.66 
19.06 15.07 0.67 
20.08 15.07 0.67 
21.09 15.06 0.67 
22.07 15.06 0.66 
23.04 15.01 0.66 
24.02 15.00 0.67 
0.02 16.00 0.67 
1.03 16.01 0.67 
2.04 16.05 0.67 
3.06 16.07 0.66 
4.08 16.07 0.67 
5.07 16.06 0.67 
6.08 16.07 0.67 
7.06 16.05 0.66 
8.04 16.06 0.67 
9.04 16.07 0.67 
10.05 16.07 0.67 
11.06 16.08 0.67 
12.08 16.08 0.67 
13.08 16.09 0.66 
14.07 16.06 0.66 
15.07 16.07 0.66 
16.08 16.05 0.66 
17.06 16.07 0.67 
18.07 16.09 0.67 
19.08 16.07 0.66 
20.07 16.07 0.67 
21.07 16.05 0.67 
22.08 16.05 0.66 
23.05 16.01 0.66 
24.03 16.00 0.67 
0.02 17.00 0.67 
1.03 17.01 0.67 
2.07 17.06 0.67 
3.09 17.06 0.67 
4.08 17.08 0.67 
5.05 17.09 0.67 
6.04 17.09 0.67 
7.06 17.06 0.67 
8.07 17.09 0.67 
9.06 17.06 0.66 
10.06 17.08 0.67 
11.05 17.08 0.66 
12.04 17.08 0.66 
13.04 17.06 0.67 
14.06 17.06 0.67 
15.06 17.05 0.66 
16.05 17.05 0.67 
17.05 17.09 0.67 
18.08 17.08 0.67 
19.08 17.08 0.67 
20.09 17.06 0.67 
21.09 17.03 0.67 
22.08 17.06 0.66 
23.04 17.02 0.66 
24.02 17.00 0.67 
0.02 18.00 0.67 
1.03 18.01 0.67 
2.07 18.04 0.66 
3.07 18.08 0.67 
4.06 18.10 0.67 
5.08 18.09 0.67 
6.09 18.08 0.65 
7.06 18.07 0.66 
8.05 18.10 0.67 
9.06 18.06 0.67 
10.05 18.06 0.65 
11.04 18.08 0.67 
12.05 18.08 0.67 
13.04 18.06 0.67 
14.04 18.05 0.67 
15.04 18.06 0.67 
16.04 18.06 0.67 
17.05 18.08 0.66 
18.06 18.07 0.67 
19.08 18.06 0.67 
20.09 18.05 0.66 
21.08 18.04 0.67 
22.05 18.06 0.66 
23.03 18.02 0.66 
24.02 18.01 0.66 
0.02 19.00 0.67 
1.03 19.01 0.67 
2.04 19.05 0.68 
3.04 19.09 0.66 
4.06 19.09 0.67 
5.09 19.06 0.67 
6.11 19.07 0.67 
7.10 19.10 0.67 
8.08 19.09 0.66 
9.07 19.07 0.66 
10.06 19.07 0.67 
11.07 19.09 0.67 
12.07 19.08 0.67 
13.07 19.07 0.67 
14.06 19.05 0.67 
15.06 19.08 0.67 
16.06 19.05 0.66 
17.07 19.06 0.67 
18.09 19.06 0.67 
19.08 19.04 0.66 
20.06 19.04 0.66 
21.05 19.06 0.67 
22.03 19.05 0.67 
23.03 19.01 0.67 
24.02 19.00 0.66 
0.01 20.00 0.67 
1.02 20.01 0.67 
2.02 20.08 0.67 
3.05 20.06 0.67 
4.09 20.07 0.67 
5.08 20.06 0.66 
6.07 20.06 0.67 
7.09 20.09 0.67 
8.08 20.08 0.66 
9.07 20.07 0.67 
10.08 20.06 0.67 
11.09 20.08 0.67 
12.09 20.06 0.66 
13.09 20.07 0.66 
14.08 20.06 0.67 
15.09 20.07 0.67 
16.09 20.05 0.66 
17.06 20.07 0.66 
18.05 20.07 0.68 
19.06 20.05 0.67 
20.05 20.05 0.67 
21.06 20.06 0.67 
22.06 20.05 0.66 
23.03 20.01 0.66 
24.02 20.00 0.67 
0.01 21.00 0.67 
1.01 21.01 0.67 
2.04 21.07 0.67 
3.07 21.04 0.67 
4.08 21.06 0.67 
5.09 21.06 0.66 
6.08 21.06 0.66 
7.06 21.06 0.66 
8.05 21.07 0.67 
9.06 21.06 0.67 
10.07 21.05 0.66 
11.07 21.08 0.66 
12.07 21.06 0.68 
13.08 21.06 0.67 
14.06 21.06 0.66 
15.05 21.04 0.67 
16.06 21.04 0.67 
17.05 21.07 0.66 
18.04 21.07 0.67 
19.05 21.05 0.67 
20.07 21.04 0.67 
21.06 21.05 0.66 
22.04 21.06 0.66 
23.02 21.01 0.67 
24.02 21.00 0.66 
0.00 22.00 0.67 
1.00 22.00 0.67 
2.02 22.03 0.66 
3.04 22.03 0.66 
4.05 22.03 0.66 
5.08 22.03 0.67 
6.08 22.06 0.66 
7.06 22.04 0.66 
8.04 22.05 0.66 
9.06 22.05 0.67 
10.07 22.04 0.67 
11.07 22.06 0.66 
12.07 22.06 0.66 
13.06 22.06 0.67 
14.06 22.04 0.66 
15.04 22.03 0.66 
16.03 22.03 0.67 
17.04 22.04 0.66 
18.05 22.06 0.67 
19.08 22.02 0.67 
20.08 22.03 0.66 
21.06 22.06 0.67 
22.04 22.05 0.66 
23.02 22.01 0.66 
24.01 22.01 0.67 
0.00 23.00 0.67 
1.00 23.00 0.67 
2.00 23.01 0.67 
3.01 23.01 0.66 
4.01 23.01 0.67 
5.01 23.01 0.67 
6.01 23.03 0.66 
7.02 23.03 0.67 
8.01 23.03 0.66 
9.01 23.02 0.66 
10.01 23.02 0.66 
11.01 23.03 0.67 
12.01 23.04 0.66 
13.02 23.04 0.66 
14.02 23.02 0.67 
15.01 23.02 0.67 
16.01 23.02 0.66 
17.01 23.02 0.67 
18.01 23.03 0.66 
19.02 23.01 0.67 
20.01 23.02 0.67 
21.01 23.04 0.66 
22.02 23.03 0.66 
23.01 23.01 0.67 
24.01 23.01 0.67 
-0.00 24.00 0.67 
1.00 24.00 0.67 
2.00 24.00 0.67 
3.00 24.01 0.67 
4.00 24.01 0.67 
5.00 24.01 0.66 
6.00 24.02 0.67 
7.00 24.02 0.66 
8.00 24.02 0.67 
9.00 24.01 0.67 
10.00 24.01 0.67 
11.00 24.02 0.66 
12.00 24.02 0.67 
13.00 24.02 0.67 
14.00 24.02 0.66 
15.00 24.01 0.66 
16.00 24.01 0.67 
17.00 24.01 0.66 
18.00 24.01 0.67 
19.00 24.01 0.67 
20.00 24.01 0.66 
21.00 24.02 0.67 
22.01 24.02 0.67 
23.01 24.01 0.67 
24.01 24.01 0.67 
0.01 0.01 1.00 
1.01 0.01 1.00 
2.01 0.02 1.00 
3.01 0.03 1.00 
4.00 0.03 1.00 
5.00 0.02 1.00 
6.01 0.02 1.00 
7.00 0.02 1.00 
8.01 0.02 1.00 
9.01 0.02 1.00 
10.00 0.02 1.00 
11.01 0.02 1.00 
12.01 0.02 1.00 
13.00 0.02 1.00 
14.01 0.02 1.00 
15.01 0.02 1.00 
16.00 0.02 1.00 
17.01 0.02 1.00 
18.00 0.02 1.00 
19.00 0.02 1.00 
20.01 0.01 1.00 
21.00 0.01 1.00 
22.01 0.00 1.00 
23.00 0.00 1.00 
24.00 -0.00 1.00 
0.01 1.01 1.00 
1.02 1.02 1.00 
2.01 1.03 1.00 
3.00 1.04 1.00 
4.00 1.03 1.00 
5.00 1.03 1.00 
6.00 1.03 1.00 
7.02 1.03 1.00 
8.00 1.04 1.00 
9.00 1.03 1.00 
10.02 1.02 1.00 
11.01 1.03 1.00 
12.00 1.02 1.00 
13.02 1.03 1.00 
14.01 1.03 1.00 
15.00 1.03 1.00 
16.01 1.03 1.00 
17.00 1.03 1.00 
18.01 1.03 1.00 
19.01 1.03 1.00 
19.99 1.02 1.00 
21.01 1.01 1.00 
21.99 1.01 1.00 
23.01 1.00 1.00 
24.00 1.00 1.00 
0.01 2.01 1.00 
1.02 2.00 1.00 
2.05 2.16 1.00 
3.08 2.09 1.00 
4.08 2.13 1.00 
5.10 2.07 1.00 
6.12 2.07 1.00 
7.04 2.12 1.00 
8.17 2.13 1.00 
9.15 2.06 1.00 
10.08 2.13 1.00 
11.09 2.08 1.00 
12.10 2.07 1.00 
13.03 2.07 1.00 
14.07 2.14 1.00 
15.08 2.10 1.00 
16.04 2.12 1.00 
17.16 2.07 1.00 
18.13 2.06 1.00 
19.10 2.15 1.00 
20.13 2.04 1.00 
21.04 2.02 1.00 
22.14 2.03 1.00 
23.01 2.00 1.00 
24.01 2.00 1.00 
0.01 3.01 1.00 
1.02 3.01 1.00 
2.01 3.14 1.00 
3.04 3.17 1.00 
4.11 3.09 1.00 
5.05 3.10 1.00 
6.05 3.14 1.00 
7.18 3.06 1.00 
8.12 3.05 1.00 
9.16 3.12 1.00 
10.11 3.09 1.00 
11.16 3.06 1.00 
12.06 3.14 1.00 
13.04 3.17 1.00 
14.10 3.02 1.00 
15.05 3.16 1.00 
16.06 3.05 1.00 
17.04 3.02 1.00 
18.07 3.10 1.00 
19.16 3.05 1.00 
20.12 3.12 1.00 
21.07 3.10 1.00 
22.04 3.11 1.00 
23.02 3.00 1.00 
24.01 3.00 1.00 
0.02 4.01 1.00 
1.02 4.01 1.00 
2.09 4.18 1.00 
3.15 4.03 1.00 
4.08 4.14 1.00 
5.13 4.17 1.00 
6.18 4.16 1.00 
7.04 4.09 1.00 
8.10 4.07 1.00 
9.11 4.18 1.00 
10.17 4.11 1.00 
11.04 4.09 1.00 
12.06 4.12 1.00 
13.17 4.04 1.00 
14.13 4.11 1.00 
15.08 4.05 1.00 
16.16 4.08 1.00 
17.05 4.07 1.00 
18.10 4.02 1.00 
19.11 4.16 1.00 
20.03 4.13 1.00 
21.16 4.09 1.00 
22.16 4.10 1.00 
23.02 4.01 1.00 
24.02 4.00 1.00 
0.02 5.01 1.00 
1.03 5.01 1.00 
2.08 5.13 1.00 
3.05 5.06 1.00 
4.12 5.07 1.00 
5.17 5.14 1.00 
6.13 5.16 1.00 
7.09 5.04 1.00 
8.16 5.11 1.00 
9.08 5.15 1.00 
10.06 5.17 1.00 
11.09 5.15 1.00 
12.07 5.16 1.00 
13.06 5.11 1.00 
14.08 5.05 1.00 
15.06 5.03 1.00 
16.14 5.17 1.00 
17.14 5.08 1.00 
18.08 5.16 1.00 
19.15 5.15 1.00 
20.18 5.16 1.00 
21.09 5.13 1.00 
22.01 5.17 1.00 
23.03 5.01 1.00 
24.02 5.01 1.00 
0.02 6.01 1.00 
1.02 6.00 1.00 
2.13 6.13 1.00 
3.16 6.14 1.00 
4.16 6.05 1.00 
5.12 6.06 1.00 
6.10 6.07 1.00 
7.06 6.08 1.00 
8.16 6.18 1.00 
9.12 6.09 1.00 
10.09 6.20 1.00 
11.12 6.06 1.00 
12.17 6.08 1.00 
13.12 6.10 1.00 
14.14 6.17 1.00 
15.16 6.04 1.00 
16.05 6.06 1.00 
17.06 6.10 1.00 
18.11 6.13 1.00 
19.13 6.05 1.00 
20.08 6.12 1.00 
21.06 6.06 1.00 
22.15 6.17 1.00 
23.03 6.00 1.00 
24.02 6.01 1.00 
0.02 7.01 1.00 
1.02 7.01 1.00 
2.00 7.09 1.00 
3.10 7.15 1.00 
4.16 7.03 1.00 
5.15 7.12 1.00 
6.14 7.06 1.00 
7.09 7.11 1.00 
8.04 7.11 1.00 
9.06 7.09 1.00 
10.10 7.17 1.00 
11.12 7.13 1.00 
12.10 7.11 1.00 
13.12 7.17 1.00 
14.09 7.13 1.00 
15.10 7.11 1.00 
16.06 7.12 1.00 
17.07 7.13 1.00 
18.06 7.15 1.00 
19.13 7.17 1.00 
20.11 7.07 1.00 
21.05 7.09 1.00 
22.05 7.09 1.00 
23.03 7.02 1.00 
24.02 7.00 1.00 
0.02 8.01 1.00 
1.02 8.01 1.00 
2.15 8.06 1.00 
3.05 8.06 1.00 
4.18 8.05 1.00 
5.14 8.16 1.00 
6.07 8.17 1.00 
7.14 8.16 1.00 
8.07 8.05 1.00 
9.12 8.15 1.00 
10.14 8.06 1.00 
11.15 8.11 1.00 
12.18 8.18 1.00 
13.03 8.06 1.00 
14.13 8.13 1.00 
15.10 8.12 1.00 
16.08 8.15 1.00 
17.07 8.07 1.00 
18.16 8.11 1.00 
19.19 8.16 1.00 
20.17 8.17 1.00 
21.14 8.11 1.00 
22.08 8.14 1.00 
23.02 8.00 1.00 
24.02 8.01 1.00 
0.02 9.01 1.00 
1.04 9.01 1.00 
2.09 9.07 1.00 
3.15 9.06 1.00 
4.03 9.09 1.00 
5.10 9.15 1.00 
6.12 9.10 1.00 
7.18 9.18 1.00 
8.06 9.16 1.00 
9.12 9.07 1.00 
10.06 9.05 1.00 
11.06 9.17 1.00 
12.01 9.18 1.00 
13.16 9.04 1.00 
14.07 9.15 1.00 
15.14 9.05 1.00 
16.15 9.13 1.00 
17.04 9.15 1.00 
18.15 9.06 1.00 
19.09 9.04 1.00 
20.11 9.18 1.00 
21.15 9.04 1.00 
22.10 9.15 1.00 
23.03 9.01 1.00 
24.02 9.00 1.00 
0.03 10.00 1.00 
1.03 10.01 1.00 
2.16 10.07 1.00 
3.06 10.11 1.00 
4.15 10.06 1.00 
5.15 10.18 1.00 
6.15 10.05 1.00 
7.09 10.12 1.00 
8.19 10.17 1.00 
9.11 10.05 1.00 
10.12 10.09 1.00 
11.08 10.18 1.00 
12.15 10.18 1.00 
13.03 10.02 1.00 
14.07 10.12 1.00 
15.17 10.01 1.00 
16.05 10.15 1.00 
17.16 10.12 1.00 
18.09 10.09 1.00 
19.05 10.09 1.00 
20.05 10.04 1.00 
21.16 10.15 1.00 
22.04 10.16 1.00 
23.04 10.00 1.00 
24.03 10.01 1.00 
0.02 11.01 1.00 
1.04 11.00 1.00 
2.05 11.13 1.00 
3.06 11.10 1.00 
4.10 11.17 1.00 
5.10 11.09 1.00 
6.04 11.07 1.00 
7.02 11.12 1.00 
8.08 11.06 1.00 
9.16 11.08 1.00 
10.08 11.03 1.00 
11.13 11.15 1.00 
12.14 11.14 1.00 
13.20 11.03 1.00 
14.15 11.05 1.00 
15.12 11.05 1.00 
16.15 11.05 1.00 
17.14 11.12 1.00 
18.18 11.10 1.00 
19.19 11.11 1.00 
20.10 11.12 1.00 
21.06 11.17 1.00 
22.15 11.03 1.00 
23.04 11.01 1.00 
24.03 11.00 1.00 
0.02 12.01 1.00 
1.03 12.01 1.00 
2.14 12.14 1.00 
3.04 12.13 1.00 
4.08 12.06 1.00 
5.04 12.14 1.00 
6.08 12.15 1.00 
7.11 12.16 1.00 
8.06 12.05 1.00 
9.08 12.05 1.00 
10.04 12.09 1.00 
11.12 12.07 1.00 
12.10 12.05 1.00 
13.04 12.07 1.00 
14.15 12.05 1.00 
15.14 12.16 1.00 
16.07 12.12 1.00 
17.06 12.03 1.00 
18.06 12.15 1.00 
19.03 12.13 1.00 
20.12 12.15 1.00 
21.13 12.11 1.00 
22.16 12.08 1.00 
23.04 12.01 1.00 
24.03 12.01 1.00 
0.02 13.01 1.00 
1.03 13.01 1.00 
2.12 13.09 1.00 
3.07 13.06 1.00 
4.03 13.09 1.00 
5.08 13.05 1.00 
6.15 13.16 1.00 
7.14 13.04 1.00 
8.07 13.13 1.00 
9.05 13.06 1.00 
10.17 13.09 1.00 
11.08 13.16 1.00 
12.04 13.12 1.00 
13.14 13.09 1.00 
14.08 13.05 1.00 
15.12 13.11 1.00 
16.06 13.11 1.00 
17.16 13.07 1.00 
18.08 13.03 1.00 
19.14 13.13 1.00 
20.06 13.17 1.00 
21.16 13.07 1.00 
22.06 13.15 1.00 
23.04 13.00 1.00 
24.02 13.01 1.00 
0.02 14.00 1.00 
1.03 14.01 1.00 
2.14 14.05 1.00 
3.07 14.12 1.00 
4.16 14.15 1.00 
5.13 14.07 1.00 
6.12 14.09 1.00 
7.08 14.10 1.00 
8.14 14.12 1.00 
9.20 14.05 1.00 
10.12 14.06 1.00 
11.09 14.08 1.00 
12.15 14.11 1.00 
13.08 14.09 1.00 
14.11 14.14 1.00 
15.13 14.09 1.00 
16.13 14.09 1.00 
17.14 14.02 1.00 
18.07 14.18 1.00 
19.05 14.03 1.00 
20.14 14.19 1.00 
21.07 14.07 1.00 
22.09 14.05 1.00 
23.03 14.02 1.00 
24.03 14.00 1.00 
0.02 15.01 1.00 
1.03 15.00 1.00 
2.10 15.13 1.00 
3.10 15.13 1.00 
4.04 15.16 1.00 
5.05 15.11 1.00 
6.03 15.10 1.00 
7.10 15.07 1.00 
8.10 15.09 1.00 
9.07 15.09 1.00 
10.12 15.12 1.00 
11.14 15.13 1.00 
12.10 15.18 1.00 
13.04 15.15 1.00 
14.07 15.06 1.00 
15.14 15.16 1.00 
16.14 15.10 1.00 
17.17 15.03 1.00 
18.12 15.15 1.00 
19.07 15.16 1.00 
20.14 15.06 1.00 
21.14 15.10 1.00 
22.14 15.15 1.00 
23.04 14.99 1.00 
24.03 15.01 1.00 
0.02 16.00 1.00 
1.03 16.02 1.00 
2.08 16.04 1.00 
3.07 16.13 1.00 
4.16 16.08 1.00 
5.10 16.06 1.00 
6.18 16.11 1.00 
7.08 16.04 1.00 
8.03 16.07 1.00 
9.03 16.11 1.00 
10.10 16.08 1.00 
11.03 16.14 1.00 
12.16 16.07 1.00 
13.15 16.17 1.00 
14.10 16.09 1.00 
15.07 16.15 1.00 
16.16 16.05 1.00 
17.05 16.09 1.00 
18.09 16.15 1.00 
19.14 16.05 1.00 
20.07 16.14 1.00 
21.08 16.05 1.00 
22.15 16.06 1.00 
23.05 16.02 1.00 
24.03 16.00 1.00 
0.02 17.01 1.00 
1.03 17.00 1.00 
2.11 17.15 1.00 
3.16 17.03 1.00 
4.12 17.14 1.00 
5.04 17.13 1.00 
6.02 17.16 1.00 
7.11 17.06 1.00 
8.14 17.17 1.00 
9.12 17.07 1.00 
10.08 17.17 1.00 
11.11 17.10 1.00 
12.03 17.18 1.00 
13.05 17.04 1.00 
14.11 17.09 1.00 
15.09 17.05 1.00 
16.08 17.06 1.00 
17.05 17.17 1.00 
18.18 17.11 1.00 
19.09 17.14 1.00 
20.15 17.10 1.00 
21.15 17.04 1.00 
22.14 17.13 1.00 
23.04 17.00 1.00 
24.03 17.01 1.00 
0.02 18.00 1.00 
1.03 18.01 1.00 
2.14 18.04 1.00 
3.10 18.16 1.00 
4.08 18.16 1.00 
5.16 18.15 1.00 
6.17 18.13 1.00 
7.04 18.10 1.00 
8.03 18.17 1.00 
9.12 18.08 1.00 
10.07 18.06 1.00 
11.03 18.12 1.00 
12.11 18.06 1.00 
13.03 18.13 1.00 
14.04 18.07 1.00 
15.07 18.11 1.00 
16.02 18.11 1.00 
17.10 18.13 1.00 
18.02 18.11 1.00 
19.15 18.09 1.00 
20.13 18.08 1.00 
21.12 18.03 1.00 
22.10 18.10 1.00 
23.03 18.01 1.00 
24.02 18.01 1.00 
0.02 19.00 1.00 
1.03 19.01 1.00 
2.08 19.05 1.00 
3.07 19.15 1.00 
4.04 19.15 1.00 
5.16 19.08 1.00 
6.19 19.05 1.00 
7.17 19.17 1.00 
8.15 19.16 1.00 
9.09 19.12 1.00 
10.08 19.08 1.00 
11.10 19.17 1.00 
12.10 19.15 1.00 
13.13 19.10 1.00 
14.07 19.05 1.00 
15.10 19.14 1.00 
16.08 19.05 1.00 
17.08 19.09 1.00 
18.19 19.07 1.00 
19.11 19.05 1.00 
20.10 19.06 1.00 
21.04 19.10 1.00 
22.04 19.09 1.00 
23.03 19.01 1.00 
24.02 19.01 1.00 
0.01 20.00 1.00 
1.02 20.00 1.00 
2.02 20.16 1.00 
3.07 20.08 1.00 
4.16 20.08 1.00 
5.14 20.10 1.00 
6.06 20.12 1.00 
7.16 20.16 1.00 
8.14 20.10 1.00 
9.07 20.09 1.00 
10.14 20.12 1.00 
11.15 20.11 1.00 
12.16 20.07 1.00 
13.12 20.16 1.00 
14.13 20.08 1.00 
15.16 20.13 1.00 
16.17 20.07 1.00 
17.06 20.12 1.00 
18.04 20.12 1.00 
19.15 20.07 1.00 
20.03 20.04 1.00 
21.12 20.12 1.00 
22.15 20.08 1.00 
23.03 20.01 1.00 
24.02 20.01 1.00 
0.01 21.00 1.00 
1.01 20.99 1.00 
2.07 21.16 1.00 
3.13 21.05 1.00 
4.09 21.12 1.00 
5.16 21.10 1.00 
6.11 21.06 1.00 
7.10 21.10 1.00 
8.05 21.12 1.00 
9.07 21.10 1.00 
10.13 21.03 1.00 
11.06 21.18 1.00 
12.09 21.06 1.00 
13.13 21.05 1.00 
14.09 21.11 1.00 
15.03 21.04 1.00 
16.12 21.03 1.00 
17.06 21.12 1.00 
18.07 21.11 1.00 
19.01 21.07 1.00 
20.12 21.10 1.00 
21.10 21.02 1.00 
22.02 21.11 1.00 
23.03 21.01 1.00 
24.02 21.01 1.00 
0.00 22.00 1.00 
1.00 22.01 1.00 
2.03 22.02 1.00 
3.07 22.06 1.00 
4.06 22.05 1.00 
5.15 22.01 1.00 
6.16 22.16 1.00 
7.09 22.02 1.00 
8.05 22.09 1.00 
9.11 22.09 1.00 
10.13 22.07 1.00 
11.13 22.08 1.00 
12.14 22.12 1.00 
13.09 22.13 1.00 
14.13 22.06 1.00 
15.08 22.05 1.00 
16.01 22.07 1.00 
17.09 22.03 1.00 
18.06 22.14 1.00 
19.18 22.02 1.00 
20.14 22.02 1.00 
21.11 22.15 1.00 
22.08 22.09 1.00 
23.02 22.01 1.00 
24.01 22.01 1.00 
-0.00 23.00 1.00 
1.00 23.00 1.00 
2.00 23.01 1.00 
3.00 23.01 1.00 
4.01 23.01 1.00 
5.00 23.02 1.00 
6.00 23.03 1.00 
7.01 23.04 1.00 
8.01 23.02 1.00 
9.01 23.02 1.00 
10.01 23.02 1.00 
11.01 23.03 1.00 
12.00 23.04 1.00 
13.02 23.03 1.00 
14.01 23.03 1.00 
15.01 23.03 1.00 
16.02 23.02 1.00 
17.00 23.02 1.00 
18.02 23.02 1.00 
19.00 23.02 1.00 
20.00 23.02 1.00 
21.00 23.03 1.00 
22.01 23.03 1.00 
23.02 23.02 1.00 
24.01 23.01 1.00 
-0.00 24.00 1.00 
1.00 24.00 1.00 
2.00 24.00 1.00 
3.00 24.01 1.00 
4.00 24.01 1.00 
5.00 24.01 1.00 
6.00 24.02 1.00 
7.00 24.02 1.00 
8.01 24.02 1.00 
9.01 24.02 1.00 
10.01 24.02 1.00 
11.00 24.02 1.00 
12.01 24.02 1.00 
13.01 24.02 1.00 
14.01 24.02 1.00 
15.01 24.02 1.00 
16.00 24.02 1.00 
17.01 24.01 1.00 
18.00 24.01 1.00 
19.01 24.01 1.00 
20.00 24.02 1.00 
21.01 24.02 1.00 
22.01 24.02 1.00 
23.01 24.01 1.00 
24.01 24.01 1.00 
CELLS 1728 15552 
8 0 1 26 25 625 626 651 650 
8 1 2 27 26 626 627 652 651 
8 2 3 28 27 627 628 653 652 
8 3 4 29 28 628 629 654 653 
8 4 5 30 29 629 630 655 654 
8 5 6 31 30 630 631 656 655 
8 6 7 32 31 631 632 657 656 
8 7 8 33 32 632 633 658 657 
8 8 9 34 33 633 634 659 658 
8 9 10 35 34 634 635 660 659 
8 10 11 36 35 635 636 661 660 
8 11 12 37 36 636 637 662 661 
8 12 13 38 37 637 638 663 662 
8 13 14 39 38 638 639 664 663 
8 14 15 40 39 639 640 665 664 
8 15 16 41 40 640 641 666 665 
8 16 17 42 41 641 642 667 666 
8 17 18 43 42 642 643 668 667 
8 18 19 44 43 643 644 669 668 
8 19 20 45 44 644 645 670 669 
8 20 21 46 45 645 646 671 670 
8 21 22 47 46 646 647 672 671 
8 22 23 48 47 647 648 673 672 
8 23 24 49 48 648 649 674 673 
8 25 26 51 50 650 651 676 675 
8 26 27 52 51 651 652 677 676 
8 27 28 53 52 652 653 678 677 
8 28 29 54 53 653 654 679 678 
8 29 30 55 54 654 655 680 679 
8 30 31 56 55 655 656 681 680 
8 31 32 57 56 656 657 682 681 
8 32 33 58 57 657 658 683 682 
8 33 34 59 58 658 659 684 683 
8 34 35 60 59 659 660 685 684 
8 35 36 61 60 660 661 686 685 
8 36 37 62 61 661 662 687 686 
8 37 38 63 62 662 663 688 687 
8 38 39 64 63 663 664 689 688 
8 39 40 65 64 664 665 690 689 
8 40 41 66 65 665 666 691 690 
8 41 42 67 66 666 667 692 691 
8 42 43 68 67 667 668 693 692 
8 43 44 69 68 668 669 694 693 
8 44 45 70 69 669 670 695 694 
8 45 46 71 70 670 671 696 695 
8 46 47 72 71 671 672 697 696 
8 47 48 73 72 672 673 698 697 
8 48 49 74 73 673 674 699 698 
8 50 51 76 75 675 676 701 700 
8 51 52 77 76 676 677 702 701 
8 52 53 78 77 677 678 703 702 
8 53 54 79 78 678 679 704 703 
8 54 55 80 79 679 680 705 704 
8 55 56 81 80 680 681 706 705 
8 56 57 82 81 681 682 707 706 
8 57 58 83 82 682 683 708 707 
8 58 59 84 83 683 684 709 708 
8 59 60 85 84 684 685 710 709 
8 60 61 86 85 685 686 711 710 
8 61 62 87 86 686 687 712 711 
8 62 63 88 87 687 688 713 712 
8 63 64 89 88 688 689 714 713 
8 64 65 90 89 689 690 715 714 
8 65 66 91 90 690 691 716 715 
8 66 67 92 91 691 692 717 716 
8 67 68 93 92 692 693 718 717 
8 68 69 94 93 693 694 719 718 
8 69 70 95 94 694 695 720 719 
8 70 71 96 95 695 696 721 720 
8 71 72 97 96 696 697 722 721 
8 72 73 98 97 697 698 723 722 
8 73 74 99 98 698 699 724 723 
8 75 76 101 100 700 701 726 725 
8 76 77 102 101 701 702 727 726 
8 77 78 103 102 702 703 728 727 
8 78 79 104 103 703 704 729 728 
8 79 80 105 104 704 705 730 729 
8 80 81 106 105 705 706 731 730 
8 81 82 107 106 706 707 732 731 
8 82 83 108 107 707 708 733 732 
8 83 84 109 108 708 709 734 733 
8 84 85 110 109 709 710 735 734 
8 85 86 111 110 710 711 736 735 
8 86 87 112 111 711 712 737 736 
8 87 88 113 112 712 713 738 737 
8 88 89 114 113 713 714 739 738 
8 89 90 115 114 714 715 740 739 
8 90 91 116 115 715 716 741 740 
8 91 92 117 116 716 717 742 741 
8 92 93 118 117 717 718 743 742 
8 93 94 119 118 718 719 744 743 
8 94 95 120 119 719 720 745 744 
8 95 96 121 120 720 721 746 745 
8 96 97 122 121 721 722 747 746 
8 97 98 123 122 722 723 748 747 
8 98 99 124 123 723 724 749 748 
8 100 101 126 125 725 726 751 750 
8 101 102 127 126 726 727 752 751 
8 102 103 128 127 727 728 753 752 
8 103 104 129 128 728 729 754 753 
8 104 105 130 129 729 730 755 754 
8 105 106 131 130 730 731 756 755 
8 106 107 132 131 731 732 757 756 
8 107 108 133 132 732 733 758 757 
8 108 109 134 133 733 734 759 758 
8 109 110 135 134 734 735 760 759 
8 110 111 136 135 735 736 761 760 
8 111 112 137 136 736 737 762 761 
8 112 113 138 137 737 738 763 762 
8 113 114 139 138 738 739 764 763 
8 114 115 140 139 739 740 765 764 
8 115 116 141 140 740 741 766 765 
8 116 117 142 141 741 742 767 766 
8 117 118 143 142 742 743 768 767 
8 118 119 144 143 743 744 769 768 
8 119 120 145 144 744 745 770 769 
8 120 121 146 145 745 746 771 770 
8 121 122 147 146 746 747 772 771 
8 122 123 148 147 747 748 773 772 
8 123 124 149 148 748 749 774 773 
8 125 126 151 150 750 751 776 775 
8 126 127 152 151 751 752 777 776 
8 127 128 153 152 752 753 778 777 
8 128 129 154 153 753 754 779 778 
8 129 130 155 154 754 755 780 779 
8 130 131 156 155 755 756 781 780 
8 131 132 157 156 756 757 782 781 
8 132 133 158 157 757 758 783 782 
8 133 134 159 158 758 759 784 783 
8 134 135 160 159 759 760 785 784 
8 135 136 161 160 760 761 786 785 
8 136 137 162 161 761 762 787 786 
8 137 138 163 162 762 763 788 787 
8 138 139 164 163 763 764 789 788 
8 139 140 165 164 764 765 790 789 
8 140 141 166 165 765 766 791 790 
8 141 142 167 166 766 767 792 791 
8 142 143 168 167 767 768 793 792 
8 143 144 169 168 768 769 794 793 
8 144 145 170 169 769 770 795 794 
8 145 146 171 170 770 771 796 795 
8 146 147 172 171 771 772 797 796 
8 147 148 173 172 772 773 798 797 
8 148 149 174 173 773 774 799 798 
8 150 151 176 175 775 776 801 800 
8 151 152 177 176 776 777 802 801 
8 152 153 178 177 777 778 803 802 
8 153 154 179 178 778 779 804 803 
8 154 155 180 179 779 780 805 804 
8 155 156 181 180 780 781 806 805 
8 156 157 182 181 781 782 807 806 
8 157 158 183 182 782 783 808 807 
8 158 159 184 183 783 784 809 808 
8 159 160 185 184 784 785 810 809 
8 160 161 186 185 785 786 811 810 
8 161 162 187 186 786 787 812 811 
8 162 163 188 187 787 788 813 812 
8 163 164 189 188 788 789 814 813 
8 164 165 190 189 789 790 815 814 
8 165 166 191 190 790 791 816 815 
8 166 167 192 191 791 792 817 816 
8 167 168 193 192 792 793 818 817 
8 168 169 194 193 793 794 819 818 
8 169 170 195 194 794 795 820 819 
8 170 171 196 195 795 796 821 820 
8 171 172 197 196 796 797 822 821 
8 172 173 198 197 797 798 823 822 
8 173 174 199 198 798 799 824 823 
8 175 176 201 200 800 801 826 825 
8 176 177 202 201 801 802 827 826 
8 177 178 203 202 802 803 828 827 
8 178 179 204 203 803 804 829 828 
8 179 180 205 204 804 805 830 829 
8 180 181 206 205 805 806 831 830 
8 181 182 207 206 806 807 832 831 
8 182 183 208 207 807 808 833 832 
8 183 184 209 208 808 809 834 833 
8 184 185 210 209 809 810 835 834 
8 185 186 211 210 810 811 836 835 
8 186 187 212 211 811 812 837 836 
8 187 188 213 212 812 813 838 837 
8 188 189 214 213 813 814 839 838 
8 189 190 215 214 814 815 840 839 
8 190 191 216 215 815 816 841 840 
8 191 192 217 216 816 817 842 841 
8 192 193 218 217 817 818 843 842 
8 193 194 219 218 818 819 844 843 
8 194 195 220 219 819 820 845 844 
8 195 196 221 220 820 821 846 845 
8 196 197 222 221 821 822 847 846 
8 197 198 223 222 822 823 848 847 
8 198 199 224 223 823 824 849 848 
8 200 201 226 225 825 826 851 850 
8 201 202 227 226 826 827 852 851 
8 202 203 228 227 827 828 853 852 
8 203 204 229 228 828 829 854 853 
8 204 205 230 229 829 830 855 854 
8 205 206 231 230 830 831 856 855 
8 206 207 232 231 831 832 857 856 
8 207 208 233 232 832 833 858 857 
8 208 209 234 233 833 834 859 858 
8 209 210 235 234 834 835 860 859 
8 210 211 236 235 835 836 861 860 
8 211 212 237 236 836 837 862 861 
8 212 213 238 237 837 838 863 862 
8 213 214 239 238 838 839 864 863 
8 214 215 240 239 839 840 865 864 
8 215 216 241 240 840 841 866 865 
8 216 217 242 241 841 842 867 866 
8 217 218 243 242 842 843 868 867 
8 218 219 244 243 843 844 869 868 
8 219 220 245 244 844 845 870 869 
8 220 221 246 245 845 846 871 870 
8 221 222 247 246 846 847 872 871 
8 222 223 248 247 847 848 873 872 
8 223 224 249 248 848 849 874 873 
8 225 226 251 250 850 851 876 875 
8 226 227 252 251 851 852 877 876 
8 227 228 253 252 852 853 878 877 
8 228 229 254 253 853 854 879 878 
8 229 230 255 254 854 855 880 879 
8 230 231 256 255 855 856 881 880 
8 231 232 257 256 856 857 882 881 
8 232 233 258 257 857 858 883 882 
8 233 234 259 258 858 859 884 883 
8 234 235 260 259 859 860 885 884 
8 235 236 261 260 860 861 886 885 
8 236 237 262 261 861 862 887 886 
8 237 238 263 262 862 863 888 887 
8 238 239 264 263 863 864 889 888 
8 239 240 265 264 864 865 890 889 
8 240 241 266 265 865 866 891 890 
8 241 242 267 266 866 867 892 891 
8 242 243 268 267 867 868 893 892 
8 243 244 269 268 868 869 894 893 
8 244 245 270 269 869 870 895 894 
8 245 246 271 270 870 871 896 895 
8 246 247 272 271 871 872 897 896 
8 247 248 273 272 872 873 898 897 
8 248 249 274 273 873 874 899 898 
8 250 251 276 275 875 876 901 900 
8 251 252 277 276 876 877 902 901 
8 252 253 278 277 877 878 903 902 
8 253 254 279 278 878 879 904 903 
8 254 255 280 279 879 880 905 904 
8 255 256 281 280 880 881 906 905 
8 256 257 282 281 881 882 907 906 
8 257 258 283 282 882 883 908 907 
8 258 259 284 283 883 884 909 908 
8 259 260 285 284 884 885 910 909 
8 260 261 286 285 885 886 911 910 
8 261 262 287 286 886 887 912 911 
8 262 263 288 287 887 888 913 912 
8 263 264 289 288 888 889 914 913 
8 264 265 290 289 889 890 915 914 
8 265 266 291 290 890 891 916 915 
8 266 267 292 291 891 892 917 916 
8 267 268 293 292 892 893 918 917 
8 268 269 294 293 893 894 919 918 
8 269 270 295 294 894 895 920 919 
8 270 271 296 295 895 896 921 920 
8 271 272 297 296 896 897 922 921 
8 272 273 298 297 897 898 923 922 
8 273 274 299 298 898 899 924 923 
8 275 276 301 300 900 901 926 925 
8 276 277 302 301 901 902 927 926 
8 277 278 303 302 902 903 928 927 
8 278 279 304 303 903 904 929 928 
8 279 280 305 304 904 905 930 929 
8 280 281 306 305 905 906 931 930 
8 281 282 307 306 906 907 932 931 
8 282 283 308 307 907 908 933 932 
8 283 284 309 308 908 909 934 933 
8 284 285 310 309 909 910 935 934 
8 285 286 311 310 910 911 936 935 
8 286 287 312 311 911 912 937 936 
8 287 288 313 312 912 913 938 937 
8 288 289 314 313 913 914 939 938 
8 289 290 315 314 914 915 940 939 
8 290 291 316 315 915 916 941 940 
8 291 292 317 316 916 917 942 941 
8 292 293 318 317 917 918 943 942 
8 293 294 319 318 918 919 944 943 
8 294 295 320 319 919 920 945 944 
8 295 296 321 320 920 921 946 945 
8 296 297 322 321 921 922 947 946 
8 297 298 323 322 922 923 948 947 
8 298 299 324 323 923 924 949 948 
8 300 301 326 325 925 926 951 950 
8 301 302 327 326 926 927 952 951 
8 302 303 328 327 927 928 953 952 
8 303 304 329 328 928 929 954 953 
8 304 305 330 329 929 930 955 954 
8 305 306 331 330 930 931 956 955 
8 306 307 332 331 931 932 957 956 
8 307 308 333 332 932 933 958 957 
8 308 309 334 333 933 934 959 958 
8 309 310 335 334 934 935 960 959 
8 310 311 336 335 935 936 961 960 
8 311 312 337 336 936 937 962 961 
8 312 313 338 337 937 938 963 962 
8 313 314 339 338 938 939 964 963 
8 314 315 340 339 939 940 965 964 
8 315 316 341 340 940 941 966 965 
8 316 317 342 341 941 942 967 966 
8 317 318 343 342 942 943 968 967 
8 318 319 344 343 943 944 969 968 
8 319 320 345 344 944 945 970 969 
8 320 321 346 345 945 946 971 970 
8 321 322 347 346 946 947 972 971 
8 322 323 348 347 947 948 973 972 
8 323 324 349 348 948 949 974 973 
8 325 326 351 350 950 951 976 975 
8 326 327 352 351 951 952 977 976 
8 327 328 353 352 952 953 978 977 
8 328 329 354 353 953 954 979 978 
8 329 330 355 354 954 955 980 979 
8 330 331 356 355 955 956 981 980 
8 331 332 357 356 956 957 982 981 
8 332 333 358 357 957 958 983 982 
8 333 334 359 358 958 959 984 983 
8 334 335 360 359 959 960 985 984 
8 335 336 361 360 960 961 986 985 
8 336 337 362 361 961 962 987 986 
8 337 338 363 362 962 963 988 987 
8 338 339 364 363 963 964 989 988 
8 339 340 365 364 964 965 990 989 
8 340 341 366 365 965 966 991 990 
8 341 342 367 366 966 967 992 991 
8 342 343 368 367 967 968 993 992 
8 343 344 369 368 968 969 994 993 
8 344 345 370 369 969 970 995 994 
8 345 346 371 370 970 971 996 995 
8 346 347 372 371 971 972 997 996 
8 347 348 373 372 972 973 998 997 
8 348 349 374 373 973 974 999 998 
8 350 351 376 375 975 976 1001 1000 
8 351 352 377 376 976 977 1002 1001 
8 352 353 378 377 977 978 1003 1002 
8 353 354 379 378 978 979 1004 1003 
8 354 355 380 379 979 980 1005 1004 
8 355 356 381 380 980 981 1006 1005 
8 356 357 382 381 981 982 1007 1006 
8 357 358 383 382 982 983 1008 1007 
8 358 359 384 383 983 984 1009 1008 
8 359 360 385 384 984 985 1010 1009 
8 360 361 386 385 985 986 1011 1010 
8 361 362 387 386 986 987 1012 1011 
8 362 363 388 387 987 988 1013 1012 
8 363 364 389 388 988 989 1014 1013 
8 364 365 390 389 989 990 1015 1014 
8 365 366 391 390 990 991 1016 1015 
8 366 367 392 391 991 992 1017 1016 
8 367 368 393 392 992 993 1018 1017 
8 368 369 394 393 993 994 1019 1018 
8 369 370 395 394 994 995 1020 1019 
8 370 371 396 395 995 996 1021 1020 
8 371 372 397 396 996 997 1022 1021 
8 372 373 398 397 997 998 1023 1022 
8 373 374 399 398 998 999 1024 1023 
8 375 376 401 400 1000 1001 1026 1025 
8 376 377 402 401 1001 1002 1027 1026 
8 377 378 403 402 1002 1003 1028 1027 
8 378 379 404 403 1003 1004 1029 1028 
8 379 380 405 404 1004 1005 1030 1029 
8 380 381 406 405 1005 1006 1031 1030 
8 381 382 407 406 1006 1007 1032 1031 
8 382 383 408 407 1007 1008 1033 1032 
8 383 384 409 408 1008 1009 1034 1033 
8 384 385 410 409 1009 1010 1035 1034 
8 385 386 411 410 1010 1011 1036 1035 
8 386 387 412 411 1011 1012 1037 1036 
8 387 388 413 412 1012 1013 1038 1037 
8 388 389 414 413 1013 1014 1039 1038 
8 389 390 415 414 1014 1015 1040 1039 
8 390 391 416 415 1015 1016 1041 1040 
8 391 392 417 416 1016 1017 1042 1041 
8 392 393 418 417 1017 1018 1043 1042 
8 393 394 419 418 1018 1019 1044 1043 
8 394 395 420 419 1019 1020 1045 1044 
8 395 396 421 420 1020 1021 1046 1045 
8 396 397 422 421 1021 1022 1047 1046 
8 397 398 423 422 1022 1023 1048 1047 
8 398 399 424 423 1023 1024 1049 1048 
8 400 401 426 425 1025 1026 1051 1050 
8 401 402 427 426 1026 1027 1052 1051 
8 402 403 428 427 1027 1028 1053 1052 
8 403 404 429 428 1028 1029 1054 1053 
8 404 405 430 429 1029 1030 1055 1054 
8 405 406 431 430 1030 1031 1056 1055 
8 406 407 432 431 1031 1032 1057 1056 
8 407 408 433 432 1032 1033 1058 1057 
8 408 409 434 433 1033 1034 1059 1058 
8 409 410 435 434 1034 1035 1060 1059 
8 410 411 436 435 1035 1036 1061 1060 
8 411 412 437 436 1036 1037 1062 1061 
8 412 413 438 437 1037 1038 1063 1062 
8 413 414 439 438 1038 1039 1064 1063 
8 414 415 440 439 1039 1040 1065 1064 
8 415 416 441 440 1040 1041 1066 1065 
8 416 417 442 441 1041 1042 1067 1066 
8 417 418 443 442 1042 1043 1068 1067 
8 418 419 444 443 1043 1044 1069 1068 
8 419 420 445 444 1044 1045 1070 1069 
8 420 421 446 445 1045 1046 1071 1070 
8 421 422 447 446 1046 1047 1072 1071 
8 422 423 448 447 1047 1048 1073 1072 
8 423 424 449 448 1048 1049 1074 1073 
8 425 426 451 450 1050 1051 1076 1075 
8 426 427 452 451 1051 1052 1077 1076 
8 427 428 453 452 1052 1053 1078 1077 
8 428 429 454 453 1053 1054 1079 1078 
8 429 430 455 454 1054 1055 1080 1079 
8 430 431 456 455 1055 1056 1081 1080 
8 431 432 457 456 1056 1057 1082 1081 
8 432 433 458 457 1057 1058 1083 1082 
8 433 434 459 458 1058 1059 1084 1083 
8 434 435 460 459 1059 1060 1085 1084 
8 435 436 461 460 1060 1061 1086 1085 
8 436 437 462 461 1061 1062 1087 1086 
8 437 438 463 462 1062 1063 1088 1087 
8 438 439 464 463 1063 1064 1089 1088 
8 439 440 465 464 1064 1065 1090 1089 
8 440 441 466 465 1065 1066 1091 1090 
8 441 442 467 466 1066 1067 1092 1091 
8 442 443 468 467 1067 1068 1093 1092 
8 443 444 469 468 1068 1069 1094 1093 
8 444 445 470 469 1069 1070 1095 1094 
8 445 446 471 470 1070 1071 1096 1095 
8 446 447 472 471 1071 1072 1097 1096 
8 447 448 473 472 1072 1073 1098 1097 
8 448 449 474 473 1073 1074 1099 1098 
8 450 451 476 475 1075 1076 1101 1100 
8 451 452 477 476 1076 1077 1102 1101 
8 452 453 478 477 1077 1078 1103 1102 
8 453 454 479 478 1078 1079 1104 1103 
8 454 455 480 479 1079 1080 1105 1104 
8 455 456 481 480 1080 1081 1106 1105 
8 456 457 482 481 1081 1082 1107 1106 
8 457 458 483 482 1082 1083 1108 1107 
8 458 459 484 483 1083 1084 1109 1108 
8 459 460 485 484 1084 1085 1110 1109 
8 460 461 486 485 1085 1086 1111 1110 
8 461 462 487 486 1086 1087 1112 1111 
8 462 463 488 487 1087 1088 1113 1112 
8 463 464 489 488 1088 1089 1114 1113 
8 464 465 490 489 1089 1090 1115 1114 
8 465 466 491 490 1090 1091 1116 1115 
8 466 467 492 491 1091 1092 1117 1116 
8 467 468 493 492 1092 1093 1118 1117 
8 468 469 494 493 1093 1094 1119 1118 
8 469 470 495 494 1094 1095 1120 1119 
8 470 471 496 495 1095 1096 1121 1120 
8 471 472 497 496 1096 1097 1122 1121 
8 472 473 498 497 1097 1098 1123 1122 
8 473 474 499 498 1098 1099 1124 1123 
8 475 476 501 500 1100 1101 1126 1125 
8 476 477 502 501 1101 1102 1127 1126 
8 477 478 503 502 1102 1103 1128 1127 
8 478 479 504 503 1103 1104 1129 1128 
8 479 480 505 504 1104 1105 1130 1129 
8 480 481 506 505 1105 1106 1131 1130 
8 481 482 507 506 1106 1107 1132 1131 
8 482 483 508 507 1107 1108 1133 1132 
8 483 484 509 508 1108 1109 1134 1133 
8 484 485 510 509 1109 1110 1135 1134 
8 485 486 511 510 1110 1111 1136 1135 
8 486 487 512 511 1111 1112 1137 1136 
8 487 488 513 512 1112 1113 1138 1137 
8 488 489 514 513 1113 1114 1139 1138 
8 489 490 515 514 1114 1115 1140 1139 
8 490 491 516 515 1115 1116 1141 1140 
8 491 492 517 516 1116 1117 1142 1141 
8 492 493 518 517 1117 1118 1143 1142 
8 493 494 519 518 1118 1119 1144 1143 
8 494 495 520 519 1119 1120 1145 1144 
8 495 496 521 520 1120 1121 1146 1145 
8 496 497 522 521 1121 1122 1147 1146 
8 497 498 523 522 1122 1123 1148 1147 
8 498 499 524 523 1123 1124 1149 1148 
8 500 501 526 525 1125 1126 1151 1150 
8 501 502 527 526 1126 1127 1152 1151 
8 502 503 528 527 1127 1128 1153 1152 
8 503 504 529 528 1128 1129 1154 1153 
8 504 505 530 529 1129 1130 1155 1154 
8 505 506 531 530 1130 1131 1156 1155 
8 506 507 532 531 1131 1132 1157 1156 
8 507 508 533 532 1132 1133 1158 1157 
8 508 509 534 533 1133 1134 1159 1158 
8 509 510 535 534 1134 1135 1160 1159 
8 510 511 536 535 1135 1136 1161 1160 
8 511 512 537 536 1136 1137 1162 1161 
8 512 513 538 537 1137 1138 1163 1162 
8 513 514 539 538 1138 1139 1164 1163 
8 514 515 540 539 1139 1140 1165 1164 
8 515 516 541 540 1140 1141 1166 1165 
8 516 517 542 541 1141 1142 1167 1166 
8 517 518 543 542 1142 1143 1168 1167 
8 518 519 544 543 1143 1144 1169 1168 
8 519 520 545 544 1144 1145 1170 1169 
8 520 521 546 545 1145 1146 1171 1170 
8 521 522 547 546 1146 1147 1172 1171 
8 522 523 548 547 1147 1148 1173 1172 
8 523 524 549 548 1148 1149 1174 1173 
8 525 526 551 550 1150 1151 1176 1175 
8 526 527 552 551 1151 1152 1177 1176 
8 527 528 553 552 1152 1153 1178 1177 
8 528 529 554 553 1153 1154 1179 1178 
8 529 530 555 554 1154 1155 1180 1179 
8 530 531 556 555 1155 1156 1181 1180 
8 531 532 557 556 1156 1157 1182 1181 
8 532 533 558 557 1157 1158 1183 1182 
8 533 534 559 558 1158 1159 1184 1183 
8 534 535 560 559 1159 1160 1185 1184 
8 535 536 561 560 1160 1161 1186 1185 
8 536 537 562 561 1161 1162 1187 1186 
8 537 538 563 562 1162 1163 1188 1187 
8 538 539 564 563 1163 1164 1189 1188 
8 539 540 565 564 1164 1165 1190 1189 
8 540 541 566 565 1165 1166 1191 1190 
8 541 542 567 566 1166 1167 1192 1191 
8 542 543 568 567 1167 1168 1193 1192 
8 543 544 569 568 1168 1169 1194 1193 
8 544 545 570 569 1169 1170 1195 1194 
8 545 546 571 570 1170 1171 1196 1195 
8 546 547 572 571 1171 1172 1197 1196 
8 547 548 573 572 1172 1173 1198 1197 
8 548 549 574 573 1173 1174 1199 1198 
8 550 551 576 575 1175 1176 1201 1200 
8 551 552 577 576 1176 1177 1202 1201 
8 552 553 578 577 1177 1178 1203 1202 
8 553 554 579 578 1178 1179 1204 1203 
8 554 555 580 579 1179 1180 1205 1204 
8 555 556 581 580 1180 1181 1206 1205 
8 556 557 582 581 1181 1182 1207 1206 
8 557 558 583 582 1182 1183 1208 1207 
8 558 559 584 583 1183 1184 1209 1208 
8 559 560 585 584 1184 1185 1210 1209 
8 560 561 586 585 1185 1186 1211 1210 
8 561 562 587 586 1186 1187 1212 1211 
8 562 563 588 587 1187 1188 1213 1212 
8 563 564 589 588 1188 1189 1214 1213 
8 564 565 590 589 1189 1190 1215 1214 
8 565 566 591 590 1190 1191 1216 1215 
8 566 567 592 591 1191 1192 1217 1216 
8 567 568 593 592 1192 1193 1218 1217 
8 568 569 594 593 1193 1194 1219 1218 
8 569 570 595 594 1194 1195 1220 1219 
8 570 571 596 595 1195 1196 1221 1220 
8 571 572 597 596 1196 1197 1222 1221 
8 572 573 598 597 1197 1198 1223 1222 
8 573 574 599 598 1198 1199 1224 1223 
8 575 576 601 600 1200 1201 1226 1225 
8 576 577 602 601 1201 1202 1227 1226 
8 577 578 603 602 1202 1203 1228 1227 
8 578 579 604 603 1203 1204 1229 1228 
8 579 580 605 604 1204 1205 1230 1229 
8 580 581 606 605 1205 1206 1231 1230 
8 581 582 607 606 1206 1207 1232 1231 
8 582 583 608 607 1207 1208 1233 1232 
8 583 584 609 608 1208 1209 1234 1233 
8 584 585 610 609 1209 1210 1235 1234 
8 585 586 611 610 1210 1211 1236 1235 
8 586 587 612 611 1211 1212 1237 1236 
8 587 588 613 612 1212 1213 1238 1237 
8 588 589 614 613 1213 1214 1239 1238 
8 589 590 615 614 1214 1215 1240 1239 
8 590 591 616 615 1215 1216 1241 1240 
8 591 592 617 616 1216 1217 1242 1241 
8 592 593 618 617 1217 1218 1243 1242 
8 593 594 619 618 1218 1219 1244 1243 
8 594 595 620 619 1219 1220 1245 1244 
8 595 596 621 620 1220 1221 1246 1245 
8 596 597 622 621 1221 1222 1247 1246 
8 597 598 623 622 1222 1223 1248 1247 
8 598 599 624 623 1223 1224 1249 1248 
8 625 626 651 650 1250 1251 1276 1275 
8 626 627 652 651 1251 1252 1277 1276 
8 627 628 653 652 1252 1253 1278 1277 
8 628 629 654 653 1253 1254 1279 1278 
8 629 630 655 654 1254 1255 1280 1279 
8 630 631 656 655 1255 1256 1281 1280 
8 631 632 657 656 1256 1257 1282 1281 
8 632 633 658 657 1257 1258 1283 1282 
8 633 634 659 658 1258 1259 1284 1283 
8 634 635 660 659 1259 1260 1285 1284 
8 635 636 661 660 1260 1261 1286 1285 
8 636 637 662 661 1261 1262 1287 1286 
8 637 638 663 662 1262 1263 1288 1287 
8 638 639 664 663 1263 1264 1289 1288 
8 639 640 665 664 1264 1265 1290 1289 
8 640 641 666 665 1265 1266 1291 1290 
8 641 642 667 666 1266 1267 1292 1291 
8 642 643 668 667 1267 1268 1293 1292 
8 643 644 669 668 1268 1269 1294 1293 
8 644 645 670 669 1269 1270 1295 1294 
8 645 646 671 670 1270 1271 1296 1295 
8 646 647 672 671 1271 1272 1297 1296 
8 647 648 673 672 1272 1273 1298 1297 
8 648 649 674 673 1273 1274 1299 1298 
8 650 651 676 675 1275 1276 1301 1300 
8 651 652 677 676 1276 1277 1302 1301 
8 652 653 678 677 1277 1278 1303 1302 
8 653 654 679 678 1278 1279 1304 1303 
8 654 655 680 679 1279 1280 1305 1304 
8 655 656 681 680 1280 1281 1306 1305 
8 656 657 682 681 1281 1282 1307 1306 
8 657 658 683 682 1282 1283 1308 1307 
8 658 659 684 683 1283 1284 1309 1308 
8 659 660 685 684 1284 1285 1310 1309 
8 660 661 686 685 1285 1286 1311 1310 
8 661 662 687 686 1286 1287 1312 1311 
8 662 663 688 687 1287 1288 1313 1312 
8 663 664 689 688 1288 1289 1314 1313 
8 664 665 690 689 1289 1290 1315 1314 
8 665 666 691 690 1290 1291 1316 1315 
8 666 667 692 691 1291 1292 1317 1316 
8 667 668 693 692 1292 1293 1318 1317 
8 668 669 694 693 1293 1294 1319 1318 
8 669 670 695 694 1294 1295 1320 1319 
8 670 671 696 695 1295 1296 1321 1320 
8 671 672 697 696 1296 1297 1322 1321 
8 672 673 698 697 1297 1298 1323 1322 
8 673 674 699 698 1298 1299 1324 1323 
8 675 676 701 700 1300 1301 1326 1325 
8 676 677 702 701 1301 1302 1327 1326 
8 677 678 703 702 1302 1303 1328 1327 
8 678 679 704 703 1303 1304 1329 1328 
8 679 680 705 704 1304 1305 1330 1329 
8 680 681 706 705 1305 1306 1331 1330 
8 681 682 707 706 1306 1307 1332 1331 
8 682 683 708 707 1307 1308 1333 1332 
8 683 684 709 708 1308 1309 1334 1333 
8 684 685 710 709 1309 1310 1335 1334 
8 685 686 711 710 1310 1311 1336 1335 
8 686 687 712 711 1311 1312 1337 1336 
8 687 688 713 712 1312 1313 1338 1337 
8 688 689 714 713 1313 1314 1339 1338 
8 689 690 715 714 1314 1315 1340 1339 
8 690 691 716 715 1315 1316 1341 1340 
8 691 692 717 716 1316 1317 1342 1341 
8 692 693 718 717 1317 1318 1343 1342 
8 693 694 719 718 1318 1319 1344 1343 
8 694 695 720 719 1319 1320 1345 1344 
8 695 696 721 720 1320 1321 1346 1345 
8 696 697 722 721 1321 1322 1347 1346 
8 697 698 723 722 1322 1323 1348 1347 
8 698 699 724 723 1323 1324 1349 1348 
8 700 701 726 725 1325 1326 1351 1350 
8 701 702 727 726 1326 1327 1352 1351 
8 702 703 728 727 1327 1328 1353 1352 
8 703 704 729 728 1328 1329 1354 1353 
8 704 705 730 729 1329 1330 1355 1354 
8 705 706 731 730 1330 1331 1356 1355 
8 706 707 732 731 1331 1332 1357 1356 
8 707 708 733 732 1332 1333 1358 1357 
8 708 709 734 733 1333 1334 1359 1358 
8 709 710 735 734 1334 1335 1360 1359 
8 710 711 736 735 1335 1336 1361 1360 
8 711 712 737 736 1336 1337 1362 1361 
8 712 713 738 737 1337 1338 1363 1362 
8 713 714 739 738 1338 1339 1364 1363 
8 714 715 740 739 1339 1340 1365 1364 
8 715 716 741 740 1340 1341 1366 1365 
8 716 717 742 741 1341 1342 1367 1366 
8 717 718 743 742 1342 1343 1368 1367 
8 718 719 744 743 1343 1344 1369 1368 
8 719 720 745 744 1344 1345 1370 1369 
8 720 721 746 745 1345 1346 1371 1370 
8 721 722 747 746 1346 1347 1372 1371 
8 722 723 748 747 1347 1348 1373 1372 
8 723 724 749 748 1348 1349 1374 1373 
8 725 726 751 750 1350 1351 1376 1375 
8 726 727 752 751 1351 1352 1377 1376 
8 727 728 753 752 1352 1353 1378 1377 
8 728 729 754 753 1353 1354 1379 1378 
8 729 730 755 754 1354 1355 1380 1379 
8 730 731 756 755 1355 1356 1381 1380 
8 731 732 757 756 1356 1357 1382 1381 
8 732 733 758 757 1357 1358 1383 1382 
8 733 734 759 758 1358 1359 1384 1383 
8 734 735 760 759 1359 1360 1385 1384 
8 735 736 761 760 1360 1361 1386 1385 
8 736 737 762 761 1361 1362 1387 1386 
8 737 738 763 762 1362 1363 1388 1387 
8 738 739 764 763 1363 1364 1389 1388 
8 739 740 765 764 1364 1365 1390 1389 
8 740 741 766 765 1365 1366 1391 1390 
8 741 742 767 766 1366 1367 1392 1391 
8 742 743 768 767 1367 1368 1393 1392 
8 743 744 769 768 1368 1369 1394 1393 
8 744 745 770 769 1369 1370 1395 1394 
8 745 746 771 770 1370 1371 1396 1395 
8 746 747 772 771 1371 1372 1397 1396 
8 747 748 773 772 1372 1373 1398 1397 
8 748 749 774 773 1373 1374 1399 1398 
8 750 751 776 775 1375 1376 1401 1400 
8 751 752 777 776 1376 1377 1402 1401 
8 752 753 778 777 1377 1378 1403 1402 
8 753 754 779 778 1378 1379 1404 1403 
8 754 755 780 779 1379 1380 1405 1404 
8 755 756 781 780 1380 1381 1406 1405 
8 756 757 782 781 1381 1382 1407 1406 
8 757 758 783 782 1382 1383 1408 1407 
8 758 759 784 783 1383 1384 1409 1408 
8 759 760 785 784 1384 1385 1410 1409 
8 760 761 786 785 1385 1386 1411 1410 
8 761 762 787 786 1386 1387 1412 1411 
8 762 763 788 787 1387 1388 1413 1412 
8 763 764 789 788 1388 1389 1414 1413 
8 764 765 790 789 1389 1390 1415 1414 
8 765 766 791 790 1390 1391 1416 1415 
8 766 767 792 791 1391 1392 1417 1416 
8 767 768 793 792 1392 1393 1418 1417 
8 768 769 794 793 1393 1394 1419 1418 
8 769 770 795 794 1394 1395 1420 1419 
8 770 771 796 795 1395 1396 1421 1420 
8 771 772 797 796 1396 1397 1422 1421 
8 772 773 798 797 1397 1398 1423 1422 
8 773 774 799 798 1398 1399 1424 1423 
8 775 776 801 800 1400 1401 1426 1425 
8 776 777 802 801 1401 1402 1427 1426 
8 777 778 803 802 1402 1403 1428 1427 
8 778 779 804 803 1403 1404 1429 1428 
8 779 780 805 804 1404 1405 1430 1429 
8 780 781 806 805 1405 1406 1431 1430 
8 781 782 807 806 1406 1407 1432 1431 
8 782 783 808 807 1407 1408 1433 1432 
8 783 784 809 808 1408 1409 1434 1433 
8 784 785 810 809 1409 1410 1435 1434 
8 785 786 811 810 1410 1411 1436 1435 
8 786 787 812 811 1411 1412 1437 1436 
8 787 788 813 812 1412 1413 1438 1437 
8 788 789 814 813 1413 1414 1439 1438 
8 789 790 815 814 1414 1415 1440 1439 
8 790 791 816 815 1415 1416 1441 1440 
8 791 792 817 816 1416 1417 1442 1441 
8 792 793 818 817 1417 1418 1443 1442 
8 793 794 819 818 1418 1419 1444 1443 
8 794 795 820 819 1419 1420 1445 1444 
8 795 796 821 820 1420 1421 1446 1445 
8 796 797 822 821 1421 1422 1447 1446 
8 797 798 823 822 1422 1423 1448 1447 
8 798 799 824 823 1423 1424 1449 1448 
8 800 801 826 825 1425 1426 1451 1450 
8 801 802 827 826 1426 1427 1452 1451 
8 802 803 828 827 1427 1428 1453 1452 
8 803 804 829 828 1428 1429 1454 1453 
8 804 805 830 829 1429 1430 1455 1454 
8 805 806 831 830 1430 1431 1456 1455 
8 806 807 832 831 1431 1432 1457 1456 
8 807 808 833 832 1432 1433 1458 1457 
8 808 809 834 833 1433 1434 1459 1458 
8 809 810 835 834 1434 1435 1460 1459 
8 810 811 836 835 1435 1436 1461 1460 
8 811 812 837 836 1436 1437 1462 1461 
8 812 813 838 837 1437 1438 1463 1462 
8 813 814 839 838 1438 1439 1464 1463 
8 814 815 840 839 1439 1440 1465 1464 
8 815 816 841 840 1440 1441 1466 1465 
8 816 817 842 841 1441 1442 1467 1466 
8 817 818 843 842 1442 1443 1468 1467 
8 818 819 844 843 1443 1444 1469 1468 
8 819 820 845 844 1444 1445 1470 1469 
8 820 821 846 845 1445 1446 1471 1470 
8 821 822 847 846 1446 1447 1472 1471 
8 822 823 848 847 1447 1448 1473 1472 
8 823 824 849 848 1448 1449 1474 1473 
8 825 826 851 850 1450 1451 1476 1475 
8 826 827 852 851 1451 1452 1477 1476 
8 827 828 853 852 1452 1453 1478 1477 
8 828 829 854 853 1453 1454 1479 1478 
8 829 830 855 854 1454 1455 1480 1479 
8 830 831 856 855 1455 1456 1481 1480 
8 831 832 857 856 1456 1457 1482 1481 
8 832 833 858 857 1457 1458 1483 1482 
8 833 834 859 858 1458 1459 1484 1483 
8 834 835 860 859 1459 1460 1485 1484 
8 835 836 861 860 1460 1461 1486 1485 
8 836 837 862 861 1461 1462 1487 1486 
8 837 838 863 862 1462 1463 1488 1487 
8 838 839 864 863 1463 1464 1489 1488 
8 839 840 865 864 1464 1465 1490 1489 
8 840 841 866 865 1465 1466 1491 1490 
8 841 842 867 866 1466 1467 1492 1491 
8 842 843 868 867 1467 1468 1493 1492 
8 843 844 869 868 1468 1469 1494 1493 
8 844 845 870 869 1469 1470 1495 1494 
8 845 846 871 870 1470 1471 1496 1495 
8 846 847 872 871 1471 1472 1497 1496 
8 847 848 873 872 1472 1473 1498 1497 
8 848 849 874 873 1473 1474 1499 1498 
8 850 851 876 875 1475 1476 1501 1500 
8 851 852 877 876 1476 1477 1502 1501 
8 852 853 878 877 1477 1478 1503 1502 
8 853 854 879 878 1478 1479 1504 1503 
8 854 855 880 879 1479 1480 1505 1504 
8 855 856 881 880 1480 1481 1506 1505 
8 856 857 882 881 1481 1482 1507 1506 
8 857 858 883 882 1482 1483 1508 1507 
8 858 859 884 883 1483 1484 1509 1508 
8 859 860 885 884 1484 1485 1510 1509 
8 860 861 886 885 1485 1486 1511 1510 
8 861 862 887 886 1486 1487 1512 1511 
8 862 863 888 887 1487 1488 1513 1512 
8 863 864 889 888 1488 1489 1514 1513 
8 864 865 890 889 1489 1490 1515 1514 
8 865 866 891 890 1490 1491 1516 1515 
8 866 867 892 891 1491 1492 1517 1516 
8 867 868 893 892 1492 1493 1518 1517 
8 868 869 894 893 1493 1494 1519 1518 
8 869 870 895 894 1494 1495 1520 1519 
8 870 871 896 895 1495 1496 1521 1520 
8 871 872 897 896 1496 1497 1522 1521 
8 872 873 898 897 1497 1498 1523 1522 
8 873 874 899 898 1498 1499 1524 1523 
8 875 876 901 900 1500 1501 1526 1525 
8 876 877 902 901 1501 1502 1527 1526 
8 877 878 903 902 1502 1503 1528 1527 
8 878 879 904 903 1503 1504 1529 1528 
8 879 880 905 904 1504 1505 1530 1529 
8 880 881 906 905 1505 1506 1531 1530 
8 881 882 907 906 1506 1507 1532 1531 
8 882 883 908 907 1507 1508 1533 1532 
8 883 884 909 908 1508 1509 1534 1533 
8 884 885 910 909 1509 1510 1535 1534 
8 885 886 911 910 1510 1511 1536 1535 
8 886 887 912 911 1511 1512 1537 1536 
8 887 888 913 912 1512 1513 1538 1537 
8 888 889 914 913 1513 1514 1539 1538 
8 889 890 915 914 1514 1515 1540 1539 
8 890 891 916 915 1515 1516 1541 1540 
8 891 892 917 916 1516 1517 1542 1541 
8 892 893 918 917 1517 1518 1543 1542 
8 893 894 919 918 1518 1519 1544 1543 
8 894 895 920 919 1519 1520 1545 1544 
8 895 896 921 920 1520 1521 1546 1545 
8 896 897 922 921 1521 1522 1547 1546 
8 897 898 923 922 1522 1523 1548 1547 
8 898 899 924 923 1523 1524 1549 1548 
8 900 901 926 925 1525 1526 1551 1550 
8 901 902 927 926 1526 1527 1552 1551 
8 902 903 928 927 1527 1528 1553 1552 
8 903 904 929 928 1528 1529 1554 1553 
8 904 905 930 929 1529 1530 1555 1554 
8 905 906 931 930 1530 1531 1556 1555 
8 906 907 932 931 1531 1532 1557 1556 
8 907 908 933 932 1532 1533 1558 1557 
8 908 909 934 933 1533 1534 1559 1558 
8 909 910 935 934 1534 1535 1560 1559 
8 910 911 936 935 1535 1536 1561 1560 
8 911 912 937 936 1536 1537 1562 1561 
8 912 913 938 937 1537 1538 1563 1562 
8 913 914 939 938 1538 1539 1564 1563 
8 914 915 940 939 1539 1540 1565 1564 
8 915 916 941 940 1540 1541 1566 1565 
8 916 917 942 941 1541 1542 1567 1566 
8 917 918 943 942 1542 1543 1568 1567 
8 918 919 944 943 1543 1544 1569 1568 
8 919 920 945 944 1544 1545 1570 1569 
8 920 921 946 945 1545 1546 1571 1570 
8 921 922 947 946 1546 1547 1572 1571 
8 922 923 948 947 1547 1548 1573 1572 
8 923 924 949 948 1548 1549 1574 1573 
8 925 926 951 950 1550 1551 1576 1575 
8 926 927 952 951 1551 1552 1577 1576 
8 927 928 953 952 1552 1553 1578 1577 
8 928 929 954 953 1553 1554 1579 1578 
8 929 930 955 954 1554 1555 1580 1579 
8 930 931 956 955 1555 1556 1581 1580 
8 931 932 957 956 1556 1557 1582 1581 
8 932 933 958 957 1557 1558 1583 1582 
8 933 934 959 958 1558 1559 1584 1583 
8 934 935 960 959 1559 1560 1585 1584 
8 935 936 961 960 1560 1561 1586 1585 
8 936 937 962 961 1561 1562 1587 1586 
8 937 938 963 962 1562 1563 1588 1587 
8 938 939 964 963 1563 1564 1589 1588 
8 939 940 965 964 1564 1565 1590 1589 
8 940 941 966 965 1565 1566 1591 1590 
8 941 942 967 966 1566 1567 1592 1591 
8 942 943 968 967 1567 1568 1593 1592 
8 943 944 969 968 1568 1569 1594 1593 
8 944 945 970 969 1569 1570 1595 1594 
8 945 946 971 970 1570 1571 1596 1595 
8 946 947 972 971 1571 1572 1597 1596 
8 947 948 973 972 1572 1573 1598 1597 
8 948 949 974 973 1573 1574 1599 1598 
8 950 951 976 975 1575 1576 1601 1600 
8 951 952 977 976 1576 1577 1602 1601 
8 952 953 978 977 1577 1578 1603 1602 
8 953 954 979 978 1578 1579 1604 1603 
8 954 955 980 979 1579 1580 1605 1604 
8 955 956 981 980 1580 1581 1606 1605 
8 956 957 982 981 1581 1582 1607 1606 
8 957 958 983 982 1582 1583 1608 1607 
8 958 959 984 983 1583 1584 1609 1608 
8 959 960 985 984 1584 1585 1610 1609 
8 960 961 986 985 1585 1586 1611 1610 
8 961 962 987 986 1586 1587 1612 1611 
8 962 963 988 987 1587 1588 1613 1612 
8 963 964 989 988 1588 1589 1614 1613 
8 964 965 990 989 1589 1590 1615 1614 
8 965 966 991 990 1590 1591 1616 1615 
8 966 967 992 991 1591 1592 1617 1616 
8 967 968 993 992 1592 1593 1618 1617 
8 968 969 994 993 1593 1594 1619 1618 
8 969 970 995 994 1594 1595 1620 1619 
8 970 971 996 995 1595 1596 1621 1620 
8 971 972 997 996 1596 1597 1622 1621 
8 972 973 998 997 1597 1598 1623 1622 
8 973 974 999 998 1598 1599 1624 1623 
8 975 976 1001 1000 1600 1601 1626 1625 
8 976 977 1002 1001 1601 1602 1627 1626 
8 977 978 1003 1002 1602 1603 1628 1627 
8 978 979 1004 1003 1603 1604 1629 1628 
8 979 980 1005 1004 1604 1605 1630 1629 
8 980 981 1006 1005 1605 1606 1631 1630 
8 981 982 1007 1006 1606 1607 1632 1631 
8 982 983 1008 1007 1607 1608 1633 1632 
8 983 984 1009 1008 1608 1609 1634 1633 
8 984 985 1010 1009 1609 1610 1635 1634 
8 985 986 1011 1010 1610 1611 1636 1635 
8 986 987 1012 1011 1611 1612 1637 1636 
8 987 988 1013 1012 1612 1613 1638 1637 
8 988 989 1014 1013 1613 1614 1639 1638 
8 989 990 1015 1014 1614 1615 1640 1639 
8 990 991 1016 1015 1615 1616 1641 1640 
8 991 992 1017 1016 1616 1617 1642 1641 
8 992 993 1018 1017 1617 1618 1643 1642 
8 993 994 1019 1018 1618 1619 1644 1643 
8 994 995 1020 1019 1619 1620 1645 1644 
8 995 996 1021 1020 1620 1621 1646 1645 
8 996 997 1022 1021 1621 1622 1647 1646 
8 997 998 1023 1022 1622 1623 1648 1647 
8 998 999 1024 1023 1623 1624 1649 1648 
8 1000 1001 1026 1025 1625 1626 1651 1650 
8 1001 1002 1027 1026 1626 1627 1652 1651 
8 1002 1003 1028 1027 1627 1628 1653 1652 
8 1003 1004 1029 1028 1628 1629 1654 1653 
8 1004 1005 1030 1029 1629 1630 1655 1654 
8 1005 1006 1031 1030 1630 1631 1656 1655 
8 1006 1007 1032 1031 1631 1632 1657 1656 
8 1007 1008 1033 1032 1632 1633 1658 1657 
8 1008 1009 1034 1033 1633 1634 1659 1658 
8 1009 1010 1035 1034 1634 1635 1660 1659 
8 1010 1011 1036 1035 1635 1636 1661 1660 
8 1011 1012 1037 1036 1636 1637 1662 1661 
8 1012 1013 1038 1037 1637 1638 1663 1662 
8 1013 1014 1039 1038 1638 1639 1664 1663 
8 1014 1015 1040 1039 1639 1640 1665 1664 
8 1015 1016 1041 1040 1640 1641 1666 1665 
8 1016 1017 1042 1041 1641 1642 1667 1666 
8 1017 1018 1043 1042 1642 1643 1668 1667 
8 1018 1019 1044 1043 1643 1644 1669 1668 
8 1019 1020 1045 1044 1644 1645 1670 1669 
8 1020 1021 1046 1045 1645 1646 1671 1670 
8 1021 1022 1047 1046 1646 1647 1672 1671 
8 1022 1023 1048 1047 1647 1648 1673 1672 
8 1023 1024 1049 1048 1648 1649 1674 1673 
8 1025 1026 1051 1050 1650 1651 1676 1675 
8 1026 1027 1052 1051 1651 1652 1677 1676 
8 1027 1028 1053 1052 1652 1653 1678 1677 
8 1028 1029 1054 1053 1653 1654 1679 1678 
8 1029 1030 1055 1054 1654 1655 1680 1679 
8 1030 1031 1056 1055 1655 1656 1681 1680 
8 1031 1032 1057 1056 1656 1657 1682 1681 
8 1032 1033 1058 1057 1657 1658 1683 1682 
8 1033 1034 1059 1058 1658 1659 1684 1683 
8 1034 1035 1060 1059 1659 1660 1685 1684 
8 1035 1036 1061 1060 1660 1661 1686 1685 
8 1036 1037 1062 1061 1661 1662 1687 1686 
8 1037 1038 1063 1062 1662 1663 1688 1687 
8 1038 1039 1064 1063 1663 1664 1689 1688 
8 1039 1040 1065 1064 1664 1665 1690 1689 
8 1040 1041 1066 1065 1665 1666 1691 1690 
8 1041 1042 1067 1066 1666 1667 1692 1691 
8 1042 1043 1068 1067 1667 1668 1693 1692 
8 1043 1044 1069 1068 1668 1669 1694 1693 
8 1044 1045 1070 1069 1669 1670 1695 1694 
8 1045 1046 1071 1070 1670 1671 1696 1695 
8 1046 1047 1072 1071 1671 1672 1697 1696 
8 1047 1048 1073 1072 1672 1673 1698 1697 
8 1048 1049 1074 1073 1673 1674 1699 1698 
8 1050 1051 1076 1075 1675 1676 1701 1700 
8 1051 1052 1077 1076 1676 1677 1702 1701 
8 1052 1053 1078 1077 1677 1678 1703 1702 
8 1053 1054 1079 1078 1678 1679 1704 1703 
8 1054 1055 1080 1079 1679 1680 1705 1704 
8 1055 1056 1081 1080 1680 1681 1706 1705 
8 1056 1057 1082 1081 1681 1682 1707 1706 
8 1057 1058 1083 1082 1682 1683 1708 1707 
8 1058 1059 1084 1083 1683 1684 1709 1708 
8 1059 1060 1085 1084 1684 1685 1710 1709 
8 1060 1061 1086 1085 1685 1686 1711 1710 
8 1061 1062 1087 1086 1686 1687 1712 1711 
8 1062 1063 1088 1087 1687 1688 1713 1712 
8 1063 1064 1089 1088 1688 1689 1714 1713 
8 1064 1065 1090 1089 1689 1690 1715 1714 
8 1065 1066 1091 1090 1690 1691 1716 1715 
8 1066 1067 1092 1091 1691 1692 1717 1716 
8 1067 1068 1093 1092 1692 1693 1718 1717 
8 1068 1069 1094 1093 1693 1694 1719 1718 
8 1069 1070 1095 1094 1694 1695 1720 1719 
8 1070 1071 1096 1095 1695 1696 1721 1720 
8 1071 1072 1097 1096 1696 1697 1722 1721 
8 1072 1073 1098 1097 1697 1698 1723 1722 
8 1073 1074 1099 1098 1698 1699 1724 1723 
8 1075 1076 1101 1100 1700 1701 1726 1725 
8 1076 1077 1102 1101 1701 1702 1727 1726 
8 1077 1078 1103 1102 1702 1703 1728 1727 
8 1078 1079 1104 1103 1703 1704 1729 1728 
8 1079 1080 1105 1104 1704 1705 1730 1729 
8 1080 1081 1106 1105 1705 1706 1731 1730 
8 1081 1082 1107 1106 1706 1707 1732 1731 
8 1082 1083 1108 1107 1707 1708 1733 1732 
8 1083 1084 1109 1108 1708 1709 1734 1733 
8 1084 1085 1110 1109 1709 1710 1735 1734 
8 1085 1086 1111 1110 1710 1711 1736 1735 
8 1086 1087 1112 1111 1711 1712 1737 1736 
8 1087 1088 1113 1112 1712 1713 1738 1737 
8 1088 1089 1114 1113 1713 1714 1739 1738 
8 1089 1090 1115 1114 1714 1715 1740 1739 
8 1090 1091 1116 1115 1715 1716 1741 1740 
8 1091 1092 1117 1116 1716 1717 1742 1741 
8 1092 1093 1118 1117 1717 1718 1743 1742 
8 1093 1094 1119 1118 1718 1719 1744 1743 
8 1094 1095 1120 1119 1719 1720 1745 1744 
8 1095 1096 1121 1120 1720 1721 1746 1745 
8 1096 1097 1122 1121 1721 1722 1747 1746 
8 1097 1098 1123 1122 1722 1723 1748 1747 
8 1098 1099 1124 1123 1723 1724 1749 1748 
8 1100 1101 1126 1125 1725 1726 1751 1750 
8 1101 1102 1127 1126 1726 1727 1752 1751 
8 1102 1103 1128 1127 1727 1728 1753 1752 
8 1103 1104 1129 1128 1728 1729 1754 1753 
8 1104 1105 1130 1129 1729 1730 1755 1754 
8 1105 1106 1131 1130 1730 1731 1756 1755 
8 1106 1107 1132 1131 1731 1732 1757 1756 
8 1107 1108 1133 1132 1732 1733 1758 1757 
8 1108 1109 1134 1133 1733 1734 1759 1758 
8 1109 1110 1135 1134 1734 1735 1760 1759 
8 1110 1111 1136 1135 1735 1736 1761 1760 
8 1111 1112 1137 1136 1736 1737 1762 1761 
8 1112 1113 1138 1137 1737 1738 1763 1762 
8 1113 1114 1139 1138 1738 1739 1764 1763 
8 1114 1115 1140 1139 1739 1740 1765 1764 
8 1115 1116 1141 1140 1740 1741 1766 1765 
8 1116 1117 1142 1141 1741 1742 1767 1766 
8 1117 1118 1143 1142 1742 1743 1768 1767 
8 1118 1119 1144 1143 1743 1744 1769 1768 
8 1119 1120 1145 1144 1744 1745 1770 1769 
8 1120 1121 1146 1145 1745 1746 1771 1770 
8 1121 1122 1147 1146 1746 1747 1772 1771 
8 1122 1123 1148 1147 1747 1748 1773 1772 
8 1123 1124 1149 1148 1748 1749 1774 1773 
8 1125 1126 1151 1150 1750 1751 1776 1775 
8 1126 1127 1152 1151 1751 1752 1777 1776 
8 1127 1128 1153 1152 1752 1753 1778 1777 
8 1128 1129 1154 1153 1753 1754 1779 1778 
8 1129 1130 1155 1154 1754 1755 1780 1779 
8 1130 1131 1156 1155 1755 1756 1781 1780 
8 1131 1132 1157 1156 1756 1757 1782 1781 
8 1132 1133 1158 1157 1757 1758 1783 1782 
8 1133 1134 1159 1158 1758 1759 1784 1783 
8 1134 1135 1160 1159 1759 1760 1785 1784 
8 1135 1136 1161 1160 1760 1761 1786 1785 
8 1136 1137 1162 1161 1761 1762 1787 1786 
8 1137 1138 1163 1162 1762 1763 1788 1787 
8 1138 1139 1164 1163 1763 1764 1789 1788 
8 1139 1140 1165 1164 1764 1765 1790 1789 
8 1140 1141 1166 1165 1765 1766 1791 1790 
8 1141 1142 1167 1166 1766 1767 1792 1791 
8 1142 1143 1168 1167 1767 1768 1793 1792 
8 1143 1144 1169 1168 1768 1769 1794 1793 
8 1144 1145 1170 1169 1769 1770 1795 1794 
8 1145 1146 1171 1170 1770 1771 1796 1795 
8 1146 1147 1172 1171 1771 1772 1797 1796 
8 1147 1148 1173 1172 1772 1773 1798 1797 
8 1148 1149 1174 1173 1773 1774 1799 1798 
8 1150 1151 1176 1175 1775 1776 1801 1800 
8 1151 1152 1177 1176 1776 1777 1802 1801 
8 1152 1153 1178 1177 1777 1778 1803 1802 
8 1153 1154 1179 1178 1778 1779 1804 1803 
8 1154 1155 1180 1179 1779 1780 1805 1804 
8 1155 1156 1181 1180 1780 1781 1806 1805 
8 1156 1157 1182 1181 1781 1782 1807 1806 
8 1157 1158 1183 1182 1782 1783 1808 1807 
8 1158 1159 1184 1183 1783 1784 1809 1808 
8 1159 1160 1185 1184 1784 1785 1810 1809 
8 1160 1161 1186 1185 1785 1786 1811 1810 
8 1161 1162 1187 1186 1786 1787 1812 1811 
8 1162 1163 1188 1187 1787 1788 1813 1812 
8 1163 1164 1189 1188 1788 1789 1814 1813 
8 1164 1165 1190 1189 1789 1790 1815 1814 
8 1165 1166 1191 1190 1790 1791 1816 1815 
8 1166 1167 1192 1191 1791 1792 1817 1816 
8 1167 1168 1193 1192 1792 1793 1818 1817 
8 1168 1169 1194 1193 1793 1794 1819 1818 
8 1169 1170 1195 1194 1794 1795 1820 1819 
8 1170 1171 1196 1195 1795 1796 1821 1820 
8 1171 1172 1197 1196 1796 1797 1822 1821 
8 1172 1173 1198 1197 1797 1798 1823 1822 
8 1173 1174 1199 1198 1798 1799 1824 1823 
8 1175 1176 1201 1200 1800 1801 1826 1825 
8 1176 1177 1202 1201 1801 1802 1827 1826 
8 1177 1178 1203 1202 1802 1803 1828 1827 
8 1178 1179 1204 1203 1803 1804 1829 1828 
8 1179 1180 1205 1204 1804 1805 1830 1829 
8 1180 1181 1206 1205 1805 1806 1831 1830 
8 1181 1182 1207 1206 1806 1807 1832 1831 
8 1182 1183 1208 1207 1807 1808 1833 1832 
8 1183 1184 1209 1208 1808 1809 1834 1833 
8 1184 1185 1210 1209 1809 1810 1835 1834 
8 1185 1186 1211 1210 1810 1811 1836 1835 
8 1186 1187 1212 1211 1811 1812 1837 1836 
8 1187 1188 1213 1212 1812 1813 1838 1837 
8 1188 1189 1214 1213 1813 1814 1839 1838 
8 1189 1190 1215 1214 1814 1815 1840 1839 
8 1190 1191 1216 1215 1815 1816 1841 1840 
8 1191 1192 1217 1216 1816 1817 1842 1841 
8 1192 1193 1218 1217 1817 1818 1843 1842 
8 1193 1194 1219 1218 1818 1819 1844 1843 
8 1194 1195 1220 1219 1819 1820 1845 1844 
8 1195 1196 1221 1220 1820 1821 1846 1845 
8 1196 1197 1222 1221 1821 1822 1847 1846 
8 1197 1198 1223 1222 1822 1823 1848 1847 
8 1198 1199 1224 1223 1823 1824 1849 1848 
8 1200 1201 1226 1225 1825 1826 1851 1850 
8 1201 1202 1227 1226 1826 1827 1852 1851 
8 1202 1203 1228 1227 1827 1828 1853 1852 
8 1203 1204 1229 1228 1828 1829 1854 1853 
8 1204 1205 1230 1229 1829 1830 1855 1854 
8 1205 1206 1231 1230 1830 1831 1856 1855 
8 1206 1207 1232 1231 1831 1832 1857 1856 
8 1207 1208 1233 1232 1832 1833 1858 1857 
8 1208 1209 1234 1233 1833 1834 1859 1858 
8 1209 1210 1235 1234 1834 1835 1860 1859 
8 1210 1211 1236 1235 1835 1836 1861 1860 
8 1211 1212 1237 1236 1836 1837 1862 1861 
8 1212 1213 1238 1237 1837 1838 1863 1862 
8 1213 1214 1239 1238 1838 1839 1864 1863 
8 1214 1215 1240 1239 1839 1840 1865 1864 
8 1215 1216 1241 1240 1840 1841 1866 1865 
8 1216 1217 1242 1241 1841 1842 1867 1866 
8 1217 1218 1243 1242 1842 1843 1868 1867 
8 1218 1219 1244 1243 1843 1844 1869 1868 
8 1219 1220 1245 1244 1844 1845 1870 1869 
8 1220 1221 1246 1245 1845 1846 1871 1870 
8 1221 1222 1247 1246 1846 1847 1872 1871 
8 1222 1223 1248 1247 1847 1848 1873 1872 
8 1223 1224 1249 1248 1848 1849 1874 1873 
8 1250 1251 1276 1275 1875 1876 1901 1900 
8 1251 1252 1277 1276 1876 1877 1902 1901 
8 1252 1253 1278 1277 1877 1878 1903 1902 
8 1253 1254 1279 1278 1878 1879 1904 1903 
8 1254 1255 1280 1279 1879 1880 1905 1904 
8 1255 1256 1281 1280 1880 1881 1906 1905 
8 1256 1257 1282 1281 1881 1882 1907 1906 
8 1257 1258 1283 1282 1882 1883 1908 1907 
8 1258 1259 1284 1283 1883 1884 1909 1908 
8 1259 1260 1285 1284 1884 1885 1910 1909 
8 1260 1261 1286 1285 1885 1886 1911 1910 
8 1261 1262 1287 1286 1886 1887 1912 1911 
8 1262 1263 1288 1287 1887 1888 1913 1912 
8 1263 1264 1289 1288 1888 1889 1914 1913 
8 1264 1265 1290 1289 1889 1890 1915 1914 
8 1265 1266 1291 1290 1890 1891 1916 1915 
8 1266 1267 1292 1291 1891 1892 1917 1916 
8 1267 1268 1293 1292 1892 1893 1918 1917 
8 1268 1269 1294 1293 1893 1894 1919 1918 
8 1269 1270 1295 1294 1894 1895 1920 1919 
8 1270 1271 1296 1295 1895 1896 1921 1920 
8 1271 1272 1297 1296 1896 1897 1922 1921 
8 1272 1273 1298 1297 1897 1898 1923 1922 
8 1273 1274 1299 1298 1898 1899 1924 1923 
8 1275 1276 1301 1300 1900 1901 1926 1925 
8 1276 1277 1302 1301 1901 1902 1927 1926 
8 1277 1278 1303 1302 1902 1903 1928 1927 
8 1278 1279 1304 1303 1903 1904 1929 1928 
8 1279 1280 1305 1304 1904 1905 1930 1929 
8 1280 1281 1306 1305 1905 1906 1931 1930 
8 1281 1282 1307 1306 1906 1907 1932 1931 
8 1282 1283 1308 1307 1907 1908 1933 1932 
8 1283 1284 1309 1308 1908 1909 1934 1933 
8 1284 1285 1310 1309 1909 1910 1935 1934 
8 1285 1286 1311 1310 1910 1911 1936 1935 
8 1286 1287 1312 1311 1911 1912 1937 1936 
8 1287 1288 1313 1312 1912 1913 1938 1937 
8 1288 1289 1314 1313 1913 1914 1939 1938 
8 1289 1290 1315 1314 1914 1915 1940 1939 
8 1290 1291 1316 1315 1915 1916 1941 1940 
8 1291 1292 1317 1316 1916 1917 1942 1941 
8 1292 1293 1318 1317 1917 1918 1943 1942 
8 1293 1294 1319 1318 1918 1919 1944 1943 
8 1294 1295 1320 1319 1919 1920 1945 1944 
8 1295 1296 1321 1320 1920 1921 1946 1945 
8 1296 1297 1322 1321 1921 1922 1947 1946 
8 1297 1298 1323 1322 1922 1923 1948 1947 
8 1298 1299 1324 1323 1923 1924 1949 1948 
8 1300 1301 1326 1325 1925 1926 1951 1950 
8 1301 1302 1327 1326 1926 1927 1952 1951 
8 1302 1303 1328 1327 1927 1928 1953 1952 
8 1303 1304 1329 1328 1928 1929 1954 1953 
8 1304 1305 1330 1329 1929 1930 1955 1954 
8 1305 1306 1331 1330 1930 1931 1956 1955 
8 1306 1307 1332 1331 1931 1932 1957 1956 
8 1307 1308 1333 1332 1932 1933 1958 1957 
8 1308 1309 1334 1333 1933 1934 1959 1958 
8 1309 1310 1335 1334 1934 1935 1960 1959 
8 1310 1311 1336 1335 1935 1936 1961 1960 
8 1311 1312 1337 1336 1936 1937 1962 1961 
8 1312 1313 1338 1337 1937 1938 1963 1962 
8 1313 1314 1339 1338 1938 1939 1964 1963 
8 1314 1315 1340 1339 1939 1940 1965 1964 
8 1315 1316 1341 1340 1940 1941 1966 1965 
8 1316 1317 1342 1341 1941 1942 1967 1966 
8 1317 1318 1343 1342 1942 1943 1968 1967 
8 1318 1319 1344 1343 1943 1944 1969 1968 
8 1319 1320 1345 1344 1944 1945 1970 1969 
8 1320 1321 1346 1345 1945 1946 1971 1970 
8 1321 1322 1347 1346 1946 1947 1972 1971 
8 1322 1323 1348 1347 1947 1948 1973 1972 
8 1323 1324 1349 1348 1948 1949 1974 1973 
8 1325 1326 1351 1350 1950 1951 1976 1975 
8 1326 1327 1352 1351 1951 1952 1977 1976 
8 1327 1328 1353 1352 1952 1953 1978 1977 
8 1328 1329 1354 1353 1953 1954 1979 1978 
8 1329 1330 1355 1354 1954 1955 1980 1979 
8 1330 1331 1356 1355 1955 1956 1981 1980 
8 1331 1332 1357 1356 1956 1957 1982 1981 
8 1332 1333 1358 1357 1957 1958 1983 1982 
8 1333 1334 1359 1358 1958 1959 1984 1983 
8 1334 1335 1360 1359 1959 1960 1985 1984 
8 1335 1336 1361 1360 1960 1961 1986 1985 
8 1336 1337 1362 1361 1961 1962 1987 1986 
8 1337 1338 1363 1362 1962 1963 1988 1987 
8 1338 1339 1364 1363 1963 1964 1989 1988 
8 1339 1340 1365 1364 1964 1965 1990 1989 
8 1340 1341 1366 1365 1965 1966 1991 1990 
8 1341 1342 1367 1366 1966 1967 1992 1991 
8 1342 1343 1368 1367 1967 1968 1993 1992 
8 1343 1344 1369 1368 1968 1969 1994 1993 
8 1344 1345 1370 1369 1969 1970 1995 1994 
8 1345 1346 1371 1370 1970 1971 1996 1995 
8 1346 1347 1372 1371 1971 1972 1997 1996 
8 1347 1348 1373 1372 1972 1973 1998 1997 
8 1348 1349 1374 1373 1973 1974 1999 1998 
8 1350 1351 1376 1375 1975 1976 2001 2000 
8 1351 1352 1377 1376 1976 1977 2002 2001 
8 1352 1353 1378 1377 1977 1978 2003 2002 
8 1353 1354 1379 1378 1978 1979 2004 2003 
8 1354 1355 1380 1379 1979 1980 2005 2004 
8 1355 1356 1381 1380 1980 1981 2006 2005 
8 1356 1357 1382 1381 1981 1982 2007 2006 
8 1357 1358 1383 1382 1982 1983 2008 2007 
8 1358 1359 1384 1383 1983 1984 2009 2008 
8 1359 1360 1385 1384 1984 1985 2010 2009 
8 1360 1361 1386 1385 1985 1986 2011 2010 
8 1361 1362 1387 1386 1986 1987 2012 2011 
8 1362 1363 1388 1387 1987 1988 2013 2012 
8 1363 1364 1389 1388 1988 1989 2014 2013 
8 1364 1365 1390 1389 1989 1990 2015 2014 
8 1365 1366 1391 1390 1990 1991 2016 2015 
8 1366 1367 1392 1391 1991 1992 2017 2016 
8 1367 1368 1393 1392 1992 1993 2018 2017 
8 1368 1369 1394 1393 1993 1994 2019 2018 
8 1369 1370 1395 1394 1994 1995 2020 2019 
8 1370 1371 1396 1395 1995 1996 2021 2020 
8 1371 1372 1397 1396 1996 1997 2022 2021 
8 1372 1373 1398 1397 1997 1998 2023 2022 
8 1373 1374 1399 1398 1998 1999 2024 2023 
8 1375 1376 1401 1400 2000 2001 2026 2025 
8 1376 1377 1402 1401 2001 2002 2027 2026 
8 1377 1378 1403 1402 2002 2003 2028 2027 
8 1378 1379 1404 1403 2003 2004 2029 2028 
8 1379 1380 1405 1404 2004 2005 2030 2029 
8 1380 1381 1406 1405 2005 2006 2031 2030 
8 1381 1382 1407 1406 2006 2007 2032 2031 
8 1382 1383 1408 1407 2007 2008 2033 2032 
8 1383 1384 1409 1408 2008 2009 2034 2033 
8 1384 1385 1410 1409 2009 2010 2035 2034 
8 1385 1386 1411 1410 2010 2011 2036 2035 
8 1386 1387 1412 1411 2011 2012 2037 2036 
8 1387 1388 1413 1412 2012 2013 2038 2037 
8 1388 1389 1414 1413 2013 2014 2039 2038 
8 1389 1390 1415 1414 2014 2015 2040 2039 
8 1390 1391 1416 1415 2015 2016 2041 2040 
8 1391 1392 1417 1416 2016 2017 2042 2041 
8 1392 1393 1418 1417 2017 2018 2043 2042 
8 1393 1394 1419 1418 2018 2019 2044 2043 
8 1394 1395 1420 1419 2019 2020 2045 2044 
8 1395 1396 1421 1420 2020 2021 2046 2045 
8 1396 1397 1422 1421 2021 2022 2047 2046 
8 1397 1398 1423 1422 2022 2023 2048 2047 
8 1398 1399 1424 1423 2023 2024 2049 2048 
8 1400 1401 1426 1425 2025 2026 2051 2050 
8 1401 1402 1427 1426 2026 2027 2052 2051 
8 1402 1403 1428 1427 2027 2028 2053 2052 
8 1403 1404 1429 1428 2028 2029 2054 2053 
8 1404 1405 1430 1429 2029 2030 2055 2054 
8 1405 1406 1431 1430 2030 2031 2056 2055 
8 1406 1407 1432 1431 2031 2032 2057 2056 
8 1407 1408 1433 1432 2032 2033 2058 2057 
8 1408 1409 1434 1433 2033 2034 2059 2058 
8 1409 1410 1435 1434 2034 2035 2060 2059 
8 1410 1411 1436 1435 2035 2036 2061 2060 
8 1411 1412 1437 1436 2036 2037 2062 2061 
8 1412 1413 1438 1437 2037 2038 2063 2062 
8 1413 1414 1439 1438 2038 2039 2064 2063 
8 1414 1415 1440 1439 2039 2040 2065 2064 
8 1415 1416 1441 1440 2040 2041 2066 2065 
8 1416 1417 1442 1441 2041 2042 2067 2066 
8 1417 1418 1443 1442 2042 2043 2068 2067 
8 1418 1419 1444 1443 2043 2044 2069 2068 
8 1419 1420 1445 1444 2044 2045 2070 2069 
8 1420 1421 1446 1445 2045 2046 2071 2070 
8 1421 1422 1447 1446 2046 2047 2072 2071 
8 1422 1423 1448 1447 2047 2048 2073 2072 
8 1423 1424 1449 1448 2048 2049 2074 2073 
8 1425 1426 1451 1450 2050 2051 2076 2075 
8 1426 1427 1452 1451 2051 2052 2077 2076 
8 1427 1428 1453 1452 2052 2053 2078 2077 
8 1428 1429 1454 1453 2053 2054 2079 2078 
8 1429 1430 1455 1454 2054 2055 2080 2079 
8 1430 1431 1456 1455 2055 2056 2081 2080 
8 1431 1432 1457 1456 2056 2057 2082 2081 
8 1432 1433 1458 1457 2057 2058 2083 2082 
8 1433 1434 1459 1458 2058 2059 2084 2083 
8 1434 1435 1460 1459 2059 2060 2085 2084 
8 1435 1436 1461 1460 2060 2061 2086 2085 
8 1436 1437 1462 1461 2061 2062 2087 2086 
8 1437 1438 1463 1462 2062 2063 2088 2087 
8 1438 1439 1464 1463 2063 2064 2089 2088 
8 1439 1440 1465 1464 2064 2065 2090 2089 
8 1440 1441 1466 1465 2065 2066 2091 2090 
8 1441 1442 1467 1466 2066 2067 2092 2091 
8 1442 1443 1468 1467 2067 2068 2093 2092 
8 1443 1444 1469 1468 2068 2069 2094 2093 
8 1444 1445 1470 1469 2069 2070 2095 2094 
8 1445 1446 1471 1470 2070 2071 2096 2095 
8 1446 1447 1472 1471 2071 2072 2097 2096 
8 1447 1448 1473 1472 2072 2073 2098 2097 
8 1448 1449 1474 1473 2073 2074 2099 2098 
8 1450 1451 1476 1475 2075 2076 2101 2100 
8 1451 1452 1477 1476 2076 2077 2102 2101 
8 1452 1453 1478 1477 2077 2078 2103 2102 
8 1453 1454 1479 1478 2078 2079 2104 2103 
8 1454 1455 1480 1479 2079 2080 2105 2104 
8 1455 1456 1481 1480 2080 2081 2106 2105 
8 1456 1457 1482 1481 2081 2082 2107 2106 
8 1457 1458 1483 1482 2082 2083 2108 2107 
8 1458 1459 1484 1483 2083 2084 2109 2108 
8 1459 1460 1485 1484 2084 2085 2110 2109 
8 1460 1461 1486 1485 2085 2086 2111 2110 
8 1461 1462 1487 1486 2086 2087 2112 2111 
8 1462 1463 1488 1487 2087 2088 2113 2112 
8 1463 1464 1489 1488 2088 2089 2114 2113 
8 1464 1465 1490 1489 2089 2090 2115 2114 
8 1465 1466 1491 1490 2090 2091 2116 2115 
8 1466 1467 1492 1491 2091 2092 2117 2116 
8 1467 1468 1493 1492 2092 2093 2118 2117 
8 1468 1469 1494 1493 2093 2094 2119 2118 
8 1469 1470 1495 1494 2094 2095 2120 2119 
8 1470 1471 1496 1495 2095 2096 2121 2120 
8 1471 1472 1497 1496 2096 2097 2122 2121 
8 1472 1473 1498 1497 2097 2098 2123 2122 
8 1473 1474 1499 1498 2098 2099 2124 2123 
8 1475 1476 1501 1500 2100 2101 2126 2125 
8 1476 1477 1502 1501 2101 2102 2127 2126 
8 1477 1478 1503 1502 2102 2103 2128 2127 
8 1478 1479 1504 1503 2103 2104 2129 2128 
8 1479 1480 1505 1504 2104 2105 2130 2129 
8 1480 1481 1506 1505 2105 2106 2131 2130 
8 1481 1482 1507 1506 2106 2107 2132 2131 
8 1482 1483 1508 1507 2107 2108 2133 2132 
8 1483 1484 1509 1508 2108 2109 2134 2133 
8 1484 1485 1510 1509 2109 2110 2135 2134 
8 1485 1486 1511 1510 2110 2111 2136 2135 
8 1486 1487 1512 1511 2111 2112 2137 2136 
8 1487 1488 1513 1512 2112 2113 2138 2137 
8 1488 1489 1514 1513 2113 2114 2139 2138 
8 1489 1490 1515 1514 2114 2115 2140 2139 
8 1490 1491 1516 1515 2115 2116 2141 2140 
8 1491 1492 1517 1516 2116 2117 2142 2141 
8 1492 1493 1518 1517 2117 2118 2143 2142 
8 1493 1494 1519 1518 2118 2119 2144 2143 
8 1494 1495 1520 1519 2119 2120 2145 2144 
8 1495 1496 1521 1520 2120 2121 2146 2145 
8 1496 1497 1522 1521 2121 2122 2147 2146 
8 1497 1498 1523 1522 2122 2123 2148 2147 
8 1498 1499 1524 1523 2123 2124 2149 2148 
8 1500 1501 1526 1525 2125 2126 2151 2150 
8 1501 1502 1527 1526 2126 2127 2152 2151 
8 1502 1503 1528 1527 2127 2128 2153 2152 
8 1503 1504 1529 1528 2128 2129 2154 2153 
8 1504 1505 1530 1529 2129 2130 2155 2154 
8 1505 1506 1531 1530 2130 2131 2156 2155 
8 1506 1507 1532 1531 2131 2132 2157 2156 
8 1507 1508 1533 1532 2132 2133 2158 2157 
8 1508 1509 1534 1533 2133 2134 2159 2158 
8 1509 1510 1535 1534 2134 2135 2160 2159 
8 1510 1511 1536 1535 2135 2136 2161 2160 
8 1511 1512 1537 1536 2136 2137 2162 2161 
8 1512 1513 1538 1537 2137 2138 2163 2162 
8 1513 1514 1539 1538 2138 2139 2164 2163 
8 1514 1515 1540 1539 2139 2140 2165 2164 
8 1515 1516 1541 1540 2140 2141 2166 2165 
8 1516 1517 1542 1541 2141 2142 2167 2166 
8 1517 1518 1543 1542 2142 2143 2168 2167 
8 1518 1519 1544 1543 2143 2144 2169 2168 
8 1519 1520 1545 1544 2144 2145 2170 2169 
8 1520 1521 1546 1545 2145 2146 2171 2170 
8 1521 1522 1547 1546 2146 2147 2172 2171 
8 1522 1523 1548 1547 2147 2148 2173 2172 
8 1523 1524 1549 1548 2148 2149 2174 2173 
8 1525 1526 1551 1550 2150 2151 2176 2175 
8 1526 1527 1552 1551 2151 2152 2177 2176 
8 1527 1528 1553 1552 2152 2153 2178 2177 
8 1528 1529 1554 1553 2153 2154 2179 2178 
8 1529 1530 1555 1554 2154 2155 2180 2179 
8 1530 1531 1556 1555 2155 2156 2181 2180 
8 1531 1532 1557 1556 2156 2157 2182 2181 
8 1532 1533 1558 1557 2157 2158 2183 2182 
8 1533 1534 1559 1558 2158 2159 2184 2183 
8 1534 1535 1560 1559 2159 2160 2185 2184 
8 1535 1536 1561 1560 2160 2161 2186 2185 
8 1536 1537 1562 1561 2161 2162 2187 2186 
8 1537 1538 1563 1562 2162 2163 2188 2187 
8 1538 1539 1564 1563 2163 2164 2189 2188 
8 1539 1540 1565 1564 2164 2165 2190 2189 
8 1540 1541 1566 1565 2165 2166 2191 2190 
8 1541 1542 1567 1566 2166 2167 2192 2191 
8 1542 1543 1568 1567 2167 2168 2193 2192 
8 1543 1544 1569 1568 2168 2169 2194 2193 
8 1544 1545 1570 1569 2169 2170 2195 2194 
8 1545 1546 1571 1570 2170 2171 2196 2195 
8 1546 1547 1572 1571 2171 2172 2197 2196 
8 1547 1548 1573 1572 2172 2173 2198 2197 
8 1548 1549 1574 1573 2173 2174 2199 2198 
8 1550 1551 1576 1575 2175 2176 2201 2200 
8 1551 1552 1577 1576 2176 2177 2202 2201 
8 1552 1553 1578 1577 2177 2178 2203 2202 
8 1553 1554 1579 1578 2178 2179 2204 2203 
8 1554 1555 1580 1579 2179 2180 2205 2204 
8 1555 1556 1581 1580 2180 2181 2206 2205 
8 1556 1557 1582 1581 2181 2182 2207 2206 
8 1557 1558 1583 1582 2182 2183 2208 2207 
8 1558 1559 1584 1583 2183 2184 2209 2208 
8 1559 1560 1585 1584 2184 2185 2210 2209 
8 1560 1561 1586 1585 2185 2186 2211 2210 
8 1561 1562 1587 1586 2186 2187 2212 2211 
8 1562 1563 1588 1587 2187 2188 2213 2212 
8 1563 1564 1589 1588 2188 2189 2214 2213 
8 1564 1565 1590 1589 2189 2190 2215 2214 
8 1565 1566 1591 1590 2190 2191 2216 2215 
8 1566 1567 1592 1591 2191 2192 2217 2216 
8 1567 1568 1593 1592 2192 2193 2218 2217 
8 1568 1569 1594 1593 2193 2194 2219 2218 
8 1569 1570 1595 1594 2194 2195 2220 2219 
8 1570 1571 1596 1595 2195 2196 2221 2220 
8 1571 1572 1597 1596 2196 2197 2222 2221 
8 1572 1573 1598 1597 2197 2198 2223 2222 
8 1573 1574 1599 1598 2198 2199 2224 2223 
8 1575 1576 1601 1600 2200 2201 2226 2225 
8 1576 1577 1602 1601 2201 2202 2227 2226 
8 1577 1578 1603 1602 2202 2203 2228 2227 
8 1578 1579 1604 1603 2203 2204 2229 2228 
8 1579 1580 1605 1604 2204 2205 2230 2229 
8 1580 1581 1606 1605 2205 2206 2231 2230 
8 1581 1582 1607 1606 2206 2207 2232 2231 
8 1582 1583 1608 1607 2207 2208 2233 2232 
8 1583 1584 1609 1608 2208 2209 2234 2233 
8 1584 1585 1610 1609 2209 2210 2235 2234 
8 1585 1586 1611 1610 2210 2211 2236 2235 
8 1586 1587 1612 1611 2211 2212 2237 2236 
8 1587 1588 1613 1612 2212 2213 2238 2237 
8 1588 1589 1614 1613 2213 2214 2239 2238 
8 1589 1590 1615 1614 2214 2215 2240 2239 
8 1590 1591 1616 1615 2215 2216 2241 2240 
8 1591 1592 1617 1616 2216 2217 2242 2241 
8 1592 1593 1618 1617 2217 2218 2243 2242 
8 1593 1594 1619 1618 2218 2219 2244 2243 
8 1594 1595 1620 1619 2219 2220 2245 2244 
8 1595 1596 1621 1620 2220 2221 2246 2245 
8 1596 1597 1622 1621 2221 2222 2247 2246 
8 1597 1598 1623 1622 2222 2223 2248 2247 
8 1598 1599 1624 1623 2223 2224 2249 2248 
8 1600 1601 1626 1625 2225 2226 2251 2250 
8 1601 1602 1627 1626 2226 2227 2252 2251 
8 1602 1603 1628 1627 2227 2228 2253 2252 
8 1603 1604 1629 1628 2228 2229 2254 2253 
8 1604 1605 1630 1629 2229 2230 2255 2254 
8 1605 1606 1631 1630 2230 2231 2256 2255 
8 1606 1607 1632 1631 2231 2232 2257 2256 
8 1607 1608 1633 1632 2232 2233 2258 2257 
8 1608 1609 1634 1633 2233 2234 2259 2258 
8 1609 1610 1635 1634 2234 2235 2260 2259 
8 1610 1611 1636 1635 2235 2236 2261 2260 
8 1611 1612 1637 1636 2236 2237 2262 2261 
8 1612 1613 1638 1637 2237 2238 2263 2262 
8 1613 1614 1639 1638 2238 2239 2264 2263 
8 1614 1615 1640 1639 2239 2240 2265 2264 
8 1615 1616 1641 1640 2240 2241 2266 2265 
8 1616 1617 1642 1641 2241 2242 2267 2266 
8 1617 1618 1643 1642 2242 2243 2268 2267 
8 1618 1619 1644 1643 2243 2244 2269 2268 
8 1619 1620 1645 1644 2244 2245 2270 2269 
8 1620 1621 1646 1645 2245 2246 2271 2270 
8 1621 1622 1647 1646 2246 2247 2272 2271 
8 1622 1623 1648 1647 2247 2248 2273 2272 
8 1623 1624 1649 1648 2248 2249 2274 2273 
8 1625 1626 1651 1650 2250 2251 2276 2275 
8 1626 1627 1652 1651 2251 2252 2277 2276 
8 1627 1628 1653 1652 2252 2253 2278 2277 
8 1628 1629 1654 1653 2253 2254 2279 2278 
8 1629 1630 1655 1654 2254 2255 2280 2279 
8 1630 1631 1656 1655 2255 2256 2281 2280 
8 1631 1632 1657 1656 2256 2257 2282 2281 
8 1632 1633 1658 1657 2257 2258 2283 2282 
8 1633 1634 1659 1658 2258 2259 2284 2283 
8 1634 1635 1660 1659 2259 2260 2285 2284 
8 1635 1636 1661 1660 2260 2261 2286 2285 
8 1636 1637 1662 1661 2261 2262 2287 2286 
8 1637 1638 1663 1662 2262 2263 2288 2287 
8 1638 1639 1664 1663 2263 2264 2289 2288 
8 1639 1640 1665 1664 2264 2265 2290 2289 
8 1640 1641 1666 1665 2265 2266 2291 2290 
8 1641 1642 1667 1666 2266 2267 2292 2291 
8 1642 1643 1668 1667 2267 2268 2293 2292 
8 1643 1644 1669 1668 2268 2269 2294 2293 
8 1644 1645 1670 1669 2269 2270 2295 2294 
8 1645 1646 1671 1670 2270 2271 2296 2295 
8 1646 1647 1672 1671 2271 2272 2297 2296 
8 1647 1648 1673 1672 2272 2273 2298 2297 
8 1648 1649 1674 1673 2273 2274 2299 2298 
8 1650 1651 1676 1675 2275 2276 2301 2300 
8 1651 1652 1677 1676 2276 2277 2302 2301 
8 1652 1653 1678 1677 2277 2278 2303 2302 
8 1653 1654 1679 1678 2278 2279 2304 2303 
8 1654 1655 1680 1679 2279 2280 2305 2304 
8 1655 1656 1681 1680 2280 2281 2306 2305 
8 1656 1657 1682 1681 2281 2282 2307 2306 
8 1657 1658 1683 1682 2282 2283 2308 2307 
8 1658 1659 1684 1683 2283 2284 2309 2308 
8 1659 1660 1685 1684 2284 2285 2310 2309 
8 1660 1661 1686 1685 2285 2286 2311 2310 
8 1661 1662 1687 1686 2286 2287 2312 2311 
8 1662 1663 1688 1687 2287 2288 2313 2312 
8 1663 1664 1689 1688 2288 2289 2314 2313 
8 1664 1665 1690 1689 2289 2290 2315 2314 
8 1665 1666 1691 1690 2290 2291 2316 2315 
8 1666 1667 1692 1691 2291 2292 2317 2316 
8 1667 1668 1693 1692 2292 2293 2318 2317 
8 1668 1669 1694 1693 2293 2294 2319 2318 
8 1669 1670 1695 1694 2294 2295 2320 2319 
8 1670 1671 1696 1695 2295 2296 2321 2320 
8 1671 1672 1697 1696 2296 2297 2322 2321 
8 1672 1673 1698 1697 2297 2298 2323 2322 
8 1673 1674 1699 1698 2298 2299 2324 2323 
8 1675 1676 1701 1700 2300 2301 2326 2325 
8 1676 1677 1702 1701 2301 2302 2327 2326 
8 1677 1678 1703 1702 2302 2303 2328 2327 
8 1678 1679 1704 1703 2303 2304 2329 2328 
8 1679 1680 1705 1704 2304 2305 2330 2329 
8 1680 1681 1706 1705 2305 2306 2331 2330 
8 1681 1682 1707 1706 2306 2307 2332 2331 
8 1682 1683 1708 1707 2307 2308 2333 2332 
8 1683 1684 1709 1708 2308 2309 2334 2333 
8 1684 1685 1710 1709 2309 2310 2335 2334 
8 1685 1686 1711 1710 2310 2311 2336 2335 
8 1686 1687 1712 1711 2311 2312 2337 2336 
8 1687 1688 1713 1712 2312 2313 2338 2337 
8 1688 1689 1714 1713 2313 2314 2339 2338 
8 1689 1690 1715 1714 2314 2315 2340 2339 
8 1690 1691 1716 1715 2315 2316 2341 2340 
8 1691 1692 1717 1716 2316 2317 2342 2341 
8 1692 1693 1718 1717 2317 2318 2343 2342 
8 1693 1694 1719 1718 2318 2319 2344 2343 
8 1694 1695 1720 1719 2319 2320 2345 2344 
8 1695 1696 1721 1720 2320 2321 2346 2345 
8 1696 1697 1722 1721 2321 2322 2347 2346 
8 1697 1698 1723 1722 2322 2323 2348 2347 
8 1698 1699 1724 1723 2323 2324 2349 2348 
8 1700 1701 1726 1725 2325 2326 2351 2350 
8 1701 1702 1727 1726 2326 2327 2352 2351 
8 1702 1703 1728 1727 2327 2328 2353 2352 
8 1703 1704 1729 1728 2328 2329 2354 2353 
8 1704 1705 1730 1729 2329 2330 2355 2354 
8 1705 1706 1731 1730 2330 2331 2356 2355 
8 1706 1707 1732 1731 2331 2332 2357 2356 
8 1707 1708 1733 1732 2332 2333 2358 2357 
8 1708 1709 1734 1733 2333 2334 2359 2358 
8 1709 1710 1735 1734 2334 2335 2360 2359 
8 1710 1711 1736 1735 2335 2336 2361 2360 
8 1711 1712 1737 1736 2336 2337 2362 2361 
8 1712 1713 1738 1737 2337 2338 2363 2362 
8 1713 1714 1739 1738 2338 2339 2364 2363 
8 1714 1715 1740 1739 2339 2340 2365 2364 
8 1715 1716 1741 1740 2340 2341 2366 2365 
8 1716 1717 1742 1741 2341 2342 2367 2366 
8 1717 1718 1743 1742 2342 2343 2368 2367 
8 1718 1719 1744 1743 2343 2344 2369 2368 
8 1719 1720 1745 1744 2344 2345 2370 2369 
8 1720 1721 1746 1745 2345 2346 2371 2370 
8 1721 1722 1747 1746 2346 2347 2372 2371 
8 1722 1723 1748 1747 2347 2348 2373 2372 
8 1723 1724 1749 1748 2348 2349 2374 2373 
8 1725 1726 1751 1750 2350 2351 2376 2375 
8 1726 1727 1752 1751 2351 2352 2377 2376 
8 1727 1728 1753 1752 2352 2353 2378 2377 
8 1728 1729 1754 1753 2353 2354 2379 2378 
8 1729 1730 1755 1754 2354 2355 2380 2379 
8 1730 1731 1756 1755 2355 2356 2381 2380 
8 1731 1732 1757 1756 2356 2357 2382 2381 
8 1732 1733 1758 1757 2357 2358 2383 2382 
8 1733 1734 1759 1758 2358 2359 2384 2383 
8 1734 1735 1760 1759 2359 2360 2385 2384 
8 1735 1736 1761 1760 2360 2361 2386 2385 
8 1736 1737 1762 1761 2361 2362 2387 2386 
8 1737 1738 1763 1762 2362 2363 2388 2387 
8 1738 1739 1764 1763 2363 2364 2389 2388 
8 1739 1740 1765 1764 2364 2365 2390 2389 
8 1740 1741 1766 1765 2365 2366 2391 2390 
8 1741 1742 1767 1766 2366 2367 2392 2391 
8 1742 1743 1768 1767 2367 2368 2393 2392 
8 1743 1744 1769 1768 2368 2369 2394 2393 
8 1744 1745 1770 1769 2369 2370 2395 2394 
8 1745 1746 1771 1770 2370 2371 2396 2395 
8 1746 1747 1772 1771 2371 2372 2397 2396 
8 1747 1748 1773 1772 2372 2373 2398 2397 
8 1748 1749 1774 1773 2373 2374 2399 2398 
8 1750 1751 1776 1775 2375 2376 2401 2400 
8 1751 1752 1777 1776 2376 2377 2402 2401 
8 1752 1753 1778 1777 2377 2378 2403 2402 
8 1753 1754 1779 1778 2378 2379 2404 2403 
8 1754 1755 1780 1779 2379 2380 2405 2404 
8 1755 1756 1781 1780 2380 2381 2406 2405 
8 1756 1757 1782 1781 2381 2382 2407 2406 
8 1757 1758 1783 1782 2382 2383 2408 2407 
8 1758 1759 1784 1783 2383 2384 2409 2408 
8 1759 1760 1785 1784 2384 2385 2410 2409 
8 1760 1761 1786 1785 2385 2386 2411 2410 
8 1761 1762 1787 1786 2386 2387 2412 2411 
8 1762 1763 1788 1787 2387 2388 2413 2412 
8 1763 1764 1789 1788 2388 2389 2414 2413 
8 1764 1765 1790 1789 2389 2390 2415 2414 
8 1765 1766 1791 1790 2390 2391 2416 2415 
8 1766 1767 1792 1791 2391 2392 2417 2416 
8 1767 1768 1793 1792 2392 2393 2418 2417 
8 1768 1769 1794 1793 2393 2394 2419 2418 
8 1769 1770 1795 1794 2394 2395 2420 2419 
8 1770 1771 1796 1795 2395 2396 2421 2420 
8 1771 1772 1797 1796 2396 2397 2422 2421 
8 1772 1773 1798 1797 2397 2398 2423 2422 
8 1773 1774 1799 1798 2398 2399 2424 2423 
8 1775 1776 1801 1800 2400 2401 2426 2425 
8 1776 1777 1802 1801 2401 2402 2427 2426 
8 1777 1778 1803 1802 2402 2403 2428 2427 
8 1778 1779 1804 1803 2403 2404 2429 2428 
8 1779 1780 1805 1804 2404 2405 2430 2429 
8 1780 1781 1806 1805 2405 2406 2431 2430 
8 1781 1782 1807 1806 2406 2407 2432 2431 
8 1782 1783 1808 1807 2407 2408 2433 2432 
8 1783 1784 1809 1808 2408 2409 2434 2433 
8 1784 1785 1810 1809 2409 2410 2435 2434 
8 1785 1786 1811 1810 2410 2411 2436 2435 
8 1786 1787 1812 1811 2411 2412 2437 2436 
8 1787 1788 1813 1812 2412 2413 2438 2437 
8 1788 1789 1814 1813 2413 2414 2439 2438 
8 1789 1790 1815 1814 2414 2415 2440 2439 
8 1790 1791 1816 1815 2415 2416 2441 2440 
8 1791 1792 1817 1816 2416 2417 2442 2441 
8 1792 1793 1818 1817 2417 2418 2443 2442 
8 1793 1794 1819 1818 2418 2419 2444 2443 
8 1794 1795 1820 1819 2419 2420 2445 2444 
8 1795 1796 1821 1820 2420 2421 2446 2445 
8 1796 1797 1822 1821 2421 2422 2447 2446 
8 1797 1798 1823 1822 2422 2423 2448 2447 
8 1798 1799 1824 1823 2423 2424 2449 2448 
8 1800 1801 1826 1825 2425 2426 2451 2450 
8 1801 1802 1827 1826 2426 2427 2452 2451 
8 1802 1803 1828 1827 2427 2428 2453 2452 
8 1803 1804 1829 1828 2428 2429 2454 2453 
8 1804 1805 1830 1829 2429 2430 2455 2454 
8 1805 1806 1831 1830 2430 2431 2456 2455 
8 1806 1807 1832 1831 2431 2432 2457 2456 
8 1807 1808 1833 1832 2432 2433 2458 2457 
8 1808 1809 1834 1833 2433 2434 2459 2458 
8 1809 1810 1835 1834 2434 2435 2460 2459 
8 1810 1811 1836 1835 2435 2436 2461 2460 
8 1811 1812 1837 1836 2436 2437 2462 2461 
8 1812 1813 1838 1837 2437 2438 2463 2462 
8 1813 1814 1839 1838 2438 2439 2464 2463 
8 1814 1815 1840 1839 2439 2440 2465 2464 
8 1815 1816 1841 1840 2440 2441 2466 2465 
8 1816 1817 1842 1841 2441 2442 2467 2466 
8 1817 1818 1843 1842 2442 2443 2468 2467 
8 1818 1819 1844 1843 2443 2444 2469 2468 
8 1819 1820 1845 1844 2444 2445 2470 2469 
8 1820 1821 1846 1845 2445 2446 2471 2470 
8 1821 1822 1847 1846 2446 2447 2472 2471 
8 1822 1823 1848 1847 2447 2448 2473 2472 
8 1823 1824 1849 1848 2448 2449 2474 2473 
8 1825 1826 1851 1850 2450 2451 2476 2475 
8 1826 1827 1852 1851 2451 2452 2477 2476 
8 1827 1828 1853 1852 2452 2453 2478 2477 
8 1828 1829 1854 1853 2453 2454 2479 2478 
8 1829 1830 1855 1854 2454 2455 2480 2479 
8 1830 1831 1856 1855 2455 2456 2481 2480 
8 1831 1832 1857 1856 2456 2457 2482 2481 
8 1832 1833 1858 1857 2457 2458 2483 2482 
8 1833 1834 1859 1858 2458 2459 2484 2483 
8 1834 1835 1860 1859 2459 2460 2485 2484 
8 1835 1836 1861 1860 2460 2461 2486 2485 
8 1836 1837 1862 1861 2461 2462 2487 2486 
8 1837 1838 1863 1862 2462 2463 2488 2487 
8 1838 1839 1864 1863 2463 2464 2489 2488 
8 1839 1840 1865 1864 2464 2465 2490 2489 
8 1840 1841 1866 1865 2465 2466 2491 2490 
8 1841 1842 1867 1866 2466 2467 2492 2491 
8 1842 1843 1868 1867 2467 2468 2493 2492 
8 1843 1844 1869 1868 2468 2469 2494 2493 
8 1844 1845 1870 1869 2469 2470 2495 2494 
8 1845 1846 1871 1870 2470 2471 2496 2495 
8 1846 1847 1872 1871 2471 2472 2497 2496 
8 1847 1848 1873 1872 2472 2473 2498 2497 
8 1848 1849 1874 1873 2473 2474 2499 2498 
CELL_TYPES 1728 
12 
12 
12 
12 
12 
12 
12 
12 
12 
12 
12 
12 
12 
12 
12 
12 
12 
12 
12 
12 
12 
12 
12 
12 
12 
12 
12 
12 
12 
12 
12 
12 
12 
12 
12 
12 
12 
12 
12 
12 
12 
12 
12 
12 
12 
12 
12 
12 
12 
12 
12 
12 
12 
12 
12 
12 
12 
12 
12 
12 
12 
12 
12 
12 
12 
12 
12 
12 
12 
12 
12 
12 
12 
12 
12 
12 
12 
12 
12 
12 
12 
12 
12 
12 
12 
12 
12 
12 
12 
12 
12 
12 
12 
12 
12 
12 
12 
12 
12 
12 
12 
12 
12 
12 
12 
12 
12 
12 
12 
12 
12 
12 
12 
12 
12 
12 
12 
12 
12 
12 
12 
12 
12 
12 
12 
12 
12 
12 
12 
12 
12 
12 
12 
12 
12 
12 
12 
12 
12 
12 
12 
12 
12 
12 
12 
12 
12 
12 
12 
12 
12 
12 
12 
12 
12 
12 
12 
12 
12 
12 
12 
12 
12 
12 
12 
12 
12 
12 
12 
12 
12 
12 
12 
12 
12 
12 
12 
12 
12 
12 
12 
12 
12 
12 
12 
12 
12 
12 
12 
12 
12 
12 
12 
12 
12 
12 
12 
12 
12 
12 
12 
12 
12 
12 
12 
12 
12 
12 
12 
12 
12 
12 
12 
12 
12 
12 
12 
12 
12 
12 
12 
12 
12 
12 
12 
12 
12 
12 
12 
12 
12 
12 
12 
12 
12 
12 
12 
12 
12 
12 
12 
12 
12 
12 
12 
12 
12 
12 
12 
12 
12 
12 
12 
12 
12 
12 
12 
12 
12 
12 
12 
12 
12 
12 
12 
12 
12 
12 
12 
12 
12 
12 
12 
12 
12 
12 
12 
12 
12 
12 
12 
12 
12 
12 
12 
12 
12 
12 
12 
12 
12 
12 
12 
12 
12 
12 
12 
12 
12 
12 
12 
12 
12 
12 
12 
12 
12 
12 
12 
12 
12 
12 
12 
12 
12 
12 
12 
12 
12 
12 
12 
12 
12 
12 
12 
12 
12 
12 
12 
12 
12 
12 
12 
12 
12 
12 
12 
12 
12 
12 
12 
12 
12 
12 
12 
12 
12 
12 
12 
12 
12 
12 
12 
12 
12 
12 
12 
12 
12 
12 
12 
12 
12 
12 
12 
12 
12 
12 
12 
12 
12 
12 
12 
12 
12 
12 
12 
12 
12 
12 
12 
12 
12 
12 
12 
12 
12 
12 
12 
12 
12 
12 
12 
12 
12 
12 
12 
12 
12 
12 
12 
12 
12 
12 
12 
12 
12 
12 
12 
12 
12 
12 
12 
12 
12 
12 
12 
12 
12 
12 
12 
12 
12 
12 
12 
12 
12 
12 
12 
12 
12 
12 
12 
12 
12 
12 
12 
12 
12 
12 
12 
12 
12 
12 
12 
12 
12 
12 
12 
12 
12 
12 
12 
12 
12 
12 
12 
12 
12 
12 
12 
12 
12 
12 
12 
12 
12 
12 
12 
12 
12 
12 
12 
12 
12 
12 
12 
12 
12 
12 
12 
12 
12 
12 
12 
12 
12 
12 
12 
12 
12 
12 
12 
12 
12 
12 
12 
12 
12 
12 
12 
12 
12 
12 
12 
12 
12 
12 
12 
12 
12 
12 
12 
12 
12 
12 
12 
12 
12 
12 
12 
12 
12 
12 
12 
12 
12 
12 
12 
12 
12 
12 
12 
12 
12 
12 
12 
12 
12 
12 
12 
12 
12 
12 
12 
12 
12 
12 
12 
12 
12 
12 
12 
12 
12 
12 
12 
12 
12 
12 
12 
12 
12 
12 
12 
12 
12 
12 
12 
12 
12 
12 
12 
12 
12 
12 
12 
12 
12 
12 
12 
12 
12 
12 
12 
12 
12 
12 
12 
12 
12 
12 
12 
12 
12 
12 
12 
12 
12 
12 
12 
12 
12 
12 
12 
12 
12 
12 
12 
12 
12 
12 
12 
12 
12 
12 
12 
12 
12 
12 
12 
12 
12 
12 
12 
12 
12 
12 
12 
12 
12 
12 
12 
12 
12 
12 
12 
12 
12 
12 
12 
12 
12 
12 
12 
12 
12 
12 
12 
12 
12 
12 
12 
12 
12 
12 
12 
12 
12 
12 
12 
12 
12 
12 
12 
12 
12 
12 
12 
12 
12 
12 
12 
12 
12 
12 
12 
12 
12 
12 
12 
12 
12 
12 
12 
12 
12 
12 
12 
12 
12 
12 
12 
12 
12 
12 
12 
12 
12 
12 
12 
12 
12 
12 
12 
12 
12 
12 
12 
12 
12 
12 
12 
12 
12 
12 
12 
12 
12 
12 
12 
12 
12 
12 
12 
12 
12 
12 
12 
12 
12 
12 
12 
12 
12 
12 
12 
12 
12 
12 
12 
12 
12 
12 
12 
12 
12 
12 
12 
12 
12 
12 
12 
12 
12 
12 
12 
12 
12 
12 
12 
12 
12 
12 
12 
12 
12 
12 
12 
12 
12 
12 
12 
12 
12 
12 
12 
12 
12 
12 
12 
12 
12 
12 
12 
12 
12 
12 
12 
12 
12 
12 
12 
12 
12 
12 
12 
12 
12 
12 
12 
12 
12 
12 
12 
12 
12 
12 
12 
12 
12 
12 
12 
12 
12 
12 
12 
12 
12 
12 
12 
12 
12 
12 
12 
12 
12 
12 
12 
12 
12 
12 
12 
12 
12 
12 
12 
12 
12 
12 
12 
12 
12 
12 
12 
12 
12 
12 
12 
12 
12 
12 
12 
12 
12 
12 
12 
12 
12 
12 
12 
12 
12 
12 
12 
12 
12 
12 
12 
12 
12 
12 
12 
12 
12 
12 
12 
12 
12 
12 
12 
12 
12 
12 
12 
12 
12 
12 
12 
12 
12 
12 
12 
12 
12 
12 
12 
12 
12 
12 
12 
12 
12 
12 
12 
12 
12 
12 
12 
12 
12 
12 
12 
12 
12 
12 
12 
12 
12 
12 
12 
12 
12 
12 
12 
12 
12 
12 
12 
12 
12 
12 
12 
12 
12 
12 
12 
12 
12 
12 
12 
12 
12 
12 
12 
12 
12 
12 
12 
12 
12 
12 
12 
12 
12 
12 
12 
12 
12 
12 
12 
12 
12 
12 
12 
12 
12 
12 
12 
12 
12 
12 
12 
12 
12 
12 
12 
12 
12 
12 
12 
12 
12 
12 
12 
12 
12 
12 
12 
12 
12 
12 
12 
12 
12 
12 
12 
12 
12 
12 
12 
12 
12 
12 
12 
12 
12 
12 
12 
12 
12 
12 
12 
12 
12 
12 
12 
12 
12 
12 
12 
12 
12 
12 
12 
12 
12 
12 
12 
12 
12 
12 
12 
12 
12 
12 
12 
12 
12 
12 
12 
12 
12 
12 
12 
12 
12 
12 
12 
12 
12 
12 
12 
12 
12 
12 
12 
12 
12 
12 
12 
12 
12 
12 
12 
12 
12 
12 
12 
12 
12 
12 
12 
12 
12 
12 
12 
12 
12 
12 
12 
12 
12 
12 
12 
12 
12 
12 
12 
12 
12 
12 
12 
12 
12 
12 
12 
12 
12 
12 
12 
12 
12 
12 
12 
12 
12 
12 
12 
12 
12 
12 
12 
12 
12 
12 
12 
12 
12 
12 
12 
12 
12 
12 
12 
12 
12 
12 
12 
12 
12 
12 
12 
12 
12 
12 
12 
12 
12 
12 
12 
12 
12 
12 
12 
12 
12 
12 
12 
12 
12 
12 
12 
12 
12 
12 
12 
12 
12 
12 
12 
12 
12 
12 
12 
12 
12 
12 
12 
12 
12 
12 
12 
12 
12 
12 
12 
12 
12 
12 
12 
12 
12 
12 
12 
12 
12 
12 
12 
12 
12 
12 
12 
12 
12 
12 
12 
12 
12 
12 
12 
12 
12 
12 
12 
12 
12 
12 
12 
12 
12 
12 
12 
12 
12 
12 
12 
12 
12 
12 
12 
12 
12 
12 
12 
12 
12 
12 
12 
12 
12 
12 
12 
12 
12 
12 
12 
12 
12 
12 
12 
12 
12 
12 
12 
12 
12 
12 
12 
12 
12 
12 
12 
12 
12 
12 
12 
12 
12 
12 
12 
12 
12 
12 
12 
12 
12 
12 
12 
12 
12 
12 
12 
12 
12 
12 
12 
12 
12 
12 
12 
12 
12 
12 
12 
12 
12 
12 
12 
12 
12 
12 
12 
12 
12 
12 
12 
12 
12 
12 
12 
12 
12 
12 
12 
12 
12 
12 
12 
12 
12 
12 
12 
12 
12 
12 
12 
12 
12 
12 
12 
12 
12 
12 
12 
12 
12 
12 
12 
12 
12 
12 
12 
12 
12 
12 
12 
12 
12 
12 
12 
12 
12 
12 
12 
12 
12 
12 
12 
12 
12 
12 
12 
12 
12 
12 
12 
12 
12 
12 
12 
12 
12 
12 
12 
12 
12 
12 
12 
12 
12 
12 
12 
12 
12 
12 
12 
12 
12 
12 
12 
12 
12 
12 
12 
12 
12 
12 
12 
12 
12 
12 
12 
12 
12 
12 
12 
12 
12 
12 
12 
12 
12 
12 
12 
12 
12 
12 
12 
12 
12 
12 
12 
12 
12 
12 
12 
12 
12 
12 
12 
12 
12 
12 
12 
12 
12 
12 
12 
12 
12 
12 
12 
12 
12 
12 
12 
12 
12 
12 
12 
12 
12 
12 
12 
12 
12 
12 
12 
12 
12 
12 
12 
12 
12 
12 
12 
12 
12 
12 
12 
12 
12 
12 
12 
12 
12 
12 
12 
12 
12 
12 
12 
12 
12 
12 
12 
12 
12 
12 
12 
12 
12 
12 
12 
12 
12 
12 
12 
12 
12 
12 
12 
12 
12 
12 
12 
12 
12 
12 
12 
12 
12 
12 
12 
12 
12 
12 
12 
12 
12 
12 
12 
12 
12 
12 
12 
12 
12 
12 
12 
12 
12 
12 
12 
12 
12 
12 
12 
12 
12 
12 
12 
12 
12 
12 
12 
12 
12 
12 
12 
12 
12 
12 
12 
12 
12 
12 
12 
12 
12 
12 
12 
12 
12 
12 
12 
12 
12 
12 
12 
12 
12 
12 
12 
12 
12 
12 
12 
12 
12 
12 
12 
12 
12 
12 
12 
12 
12 
12 
12 
12 
12 
12 
12 
12 
12 
12 
12 
12 
12 
12 
12 
12 
12 
12 
12 
12 
12 
12 
12 
12 
12 
12 
12 
12 
12 
12 
12 
12 
12 
12 
12 
12 
12 
12 
12 
12 
12 
12 
12 
12 
12 
12 
12 
12 
12 
12 
12 
12 
12 
12 
12 
12 
12 
12 
12 
12 
12 
12 
12 
12 
12 
12 
12 
12 
12 
12 
12 
12 
12 
12 
12 
12 
12 
12 
12 
12 
12 
12 
12 
12 
12 
12 
12 
12 
12 
12 
12 
12 
12 
12 
12 
12 
12 
12 
12 
12 
12 
12 
12 
12 
12 
12 
12 
12 
12 
12 
12 
12 
12 
12 
12 
12 
12 
12 
12 
12 
12 
12 
12 
12 
12 
12 
12 
12 
12 
12 
12 
12 
12 
12 
12 
12 
12 
12 
12 
12 
12 
12 
12 
12 
12 
12 
12 
12 
12 
12 
POINT_DATA 2500 
VECTORS Displacements float
0.0000 0.0000 0.0000 
0.0000 0.0000 0.0000 
0.0000 0.0000 0.0000 
0.0000 0.0000 0.0000 
0.0000 0.0000 0.0000 
0.0000 0.0000 0.0000 
0.0000 0.0000 0.0000 
0.0000 0.0000 0.0000 
0.0000 0.0000 0.0000 
0.0000 0.0000 0.0000 
0.0000 0.0000 0.0000 
0.0000 0.0000 0.0000 
0.0000 0.0000 0.0000 
0.0000 0.0000 0.0000 
0.0000 0.0000 0.0000 
0.0000 0.0000 0.0000 
0.0000 0.0000 0.0000 
0.0000 0.0000 0.0000 
0.0000 0.0000 0.0000 
0.0000 0.0000 0.0000 
0.0000 0.0000 0.0000 
0.0000 0.0000 0.0000 
0.0000 0.0000 0.0000 
0.0000 0.0000 0.0000 
0.0000 0.0000 0.0000 
0.0000 0.0000 0.0000 
0.0000 0.0000 0.0000 
0.0000 0.0000 0.0000 
0.0000 0.0000 0.0000 
0.0000 0.0000 0.0000 
0.0000 0.0000 0.0000 
0.0000 0.0000 0.0000 
0.0000 0.0000 0.0000 
0.0000 0.0000 0.0000 
0.0000 0.0000 0.0000 
0.0000 0.0000 0.0000 
0.0000 0.0000 0.0000 
0.0000 0.0000 0.0000 
0.0000 0.0000 0.0000 
0.0000 0.0000 0.0000 
0.0000 0.0000 0.0000 
0.0000 0.0000 0.0000 
0.0000 0.0000 0.0000 
0.0000 0.0000 0.0000 
0.0000 0.0000 0.0000 
0.0000 0.0000 0.0000 
0.0000 0.0000 0.0000 
0.0000 0.0000 0.0000 
0.0000 0.0000 0.0000 
0.0000 0.0000 0.0000 
0.0000 0.0000 0.0000 
0.0000 0.0000 0.0000 
0.0000 0.0000 0.0000 
0.0000 0.0000 0.0000 
0.0000 0.0000 0.0000 
0.0000 0.0000 0.0000 
0.0000 0.0000 0.0000 
0.0000 0.0000 0.0000 
0.0000 0.0000 0.0000 
0.0000 0.0000 0.0000 
0.0000 0.0000 0.0000 
0.0000 0.0000 0.0000 
0.0000 0.0000 0.0000 
0.0000 0.0000 0.0000 
0.0000 0.0000 0.0000 
0.0000 0.0000 0.0000 
0.0000 0.0000 0.0000 
0.0000 0.0000 0.0000 
0.0000 0.0000 0.0000 
0.0000 0.0000 0.0000 
0.0000 0.0000 0.0000 
0.0000 0.0000 0.0000 
0.0000 0.0000 0.0000 
0.0000 0.0000 0.0000 
0.0000 0.0000 0.0000 
0.0000 0.0000 0.0000 
0.0000 0.0000 0.0000 
0.0000 0.0000 0.0000 
0.0000 0.0000 0.0000 
0.0000 0.0000 0.0000 
0.0000 0.0000 0.0000 
0.0000 0.0000 0.0000 
0.0000 0.0000 0.0000 
0.0000 0.0000 0.0000 
0.0000 0.0000 0.0000 
0.0000 0.0000 0.0000 
0.0000 0.0000 0.0000 
0.0000 0.0000 0.0000 
0.0000 0.0000 0.0000 
0.0000 0.0000 0.0000 
0.0000 0.0000 0.0000 
0.0000 0.0000 0.0000 
0.0000 0.0000 0.0000 
0.0000 0.0000 0.0000 
0.0000 0.0000 0.0000 
0.0000 0.0000 0.0000 
0.0000 0.0000 0.0000 
0.0000 0.0000 0.0000 
0.0000 0.0000 0.0000 
0.0000 0.0000 0.0000 
0.0000 0.0000 0.0000 
0.0000 0.0000 0.0000 
0.0000 0.0000 0.0000 
0.0000 0.0000 0.0000 
0.0000 0.0000 0.0000 
0.0000 0.0000 0.0000 
0.0000 0.0000 0.0000 
0.0000 0.0000 0.0000 
0.0000 0.0000 0.0000 
0.0000 0.0000 0.0000 
0.0000 0.0000 0.0000 
0.0000 0.0000 0.0000 
0.0000 0.0000 0.0000 
0.0000 0.0000 0.0000 
0.0000 0.0000 0.0000 
0.0000 0.0000 0.0000 
0.0000 0.0000 0.0000 
0.0000 0.0000 0.0000 
0.0000 0.0000 0.0000 
0.0000 0.0000 0.0000 
0.0000 0.0000 0.0000 
0.0000 0.0000 0.0000 
0.0000 0.0000 0.0000 
0.0000 0.0000 0.0000 
0.0000 0.0000 0.0000 
0.0000 0.0000 0.0000 
0.0000 0.0000 0.0000 
0.0000 0.0000 0.0000 
0.0000 0.0000 0.0000 
0.0000 0.0000 0.0000 
0.0000 0.0000 0.0000 
0.0000 0.0000 0.0000 
0.0000 0.0000 0.0000 
0.0000 0.0000 0.0000 
0.0000 0.0000 0.0000 
0.0000 0.0000 0.0000 
0.0000 0.0000 0.0000 
0.0000 0.0000 0.0000 
0.0000 0.0000 0.0000 
0.0000 0.0000 0.0000 
0.0000 0.0000 0.0000 
0.0000 0.0000 0.0000 
0.0000 0.0000 0.0000 
0.0000 0.0000 0.0000 
0.0000 0.0000 0.0000 
0.0000 0.0000 0.0000 
0.0000 0.0000 0.0000 
0.0000 0.0000 0.0000 
0.0000 0.0000 0.0000 
0.0000 0.0000 0.0000 
0.0000 0.0000 0.0000 
0.0000 0.0000 0.0000 
0.0000 0.0000 0.0000 
0.0000 0.0000 0.0000 
0.0000 0.0000 0.0000 
0.0000 0.0000 0.0000 
0.0000 0.0000 0.0000 
0.0000 0.0000 0.0000 
0.0000 0.0000 0.0000 
0.0000 0.0000 0.0000 
0.0000 0.0000 0.0000 
0.0000 0.0000 0.0000 
0.0000 0.0000 0.0000 
0.0000 0.0000 0.0000 
0.0000 0.0000 0.0000 
0.0000 0.0000 0.0000 
0.0000 0.0000 0.0000 
0.0000 0.0000 0.0000 
0.0000 0.0000 0.0000 
0.0000 0.0000 0.0000 
0.0000 0.0000 0.0000 
0.0000 0.0000 0.0000 
0.0000 0.0000 0.0000 
0.0000 0.0000 0.0000 
0.0000 0.0000 0.0000 
0.0000 0.0000 0.0000 
0.0000 0.0000 0.0000 
0.0000 0.0000 0.0000 
0.0000 0.0000 0.0000 
0.0000 0.0000 0.0000 
0.0000 0.0000 0.0000 
0.0000 0.0000 0.0000 
0.0000 0.0000 0.0000 
0.0000 0.0000 0.0000 
0.0000 0.0000 0.0000 
0.0000 0.0000 0.0000 
0.0000 0.0000 0.0000 
0.0000 0.0000 0.0000 
0.0000 0.0000 0.0000 
0.0000 0.0000 0.0000 
0.0000 0.0000 0.0000 
0.0000 0.0000 0.0000 
0.0000 0.0000 0.0000 
0.0000 0.0000 0.0000 
0.0000 0.0000 0.0000 
0.0000 0.0000 0.0000 
0.0000 0.0000 0.0000 
0.0000 0.0000 0.0000 
0.0000 0.0000 0.0000 
0.0000 0.0000 0.0000 
0.0000 0.0000 0.0000 
0.0000 0.0000 0.0000 
0.0000 0.0000 0.0000 
0.0000 0.0000 0.0000 
0.0000 0.0000 0.0000 
0.0000 0.0000 0.0000 
0.0000 0.0000 0.0000 
0.0000 0.0000 0.0000 
0.0000 0.0000 0.0000 
0.0000 0.0000 0.0000 
0.0000 0.0000 0.0000 
0.0000 0.0000 0.0000 
0.0000 0.0000 0.0000 
0.0000 0.0000 0.0000 
0.0000 0.0000 0.0000 
0.0000 0.0000 0.0000 
0.0000 0.0000 0.0000 
0.0000 0.0000 0.0000 
0.0000 0.0000 0.0000 
0.0000 0.0000 0.0000 
0.0000 0.0000 0.0000 
0.0000 0.0000 0.0000 
0.0000 0.0000 0.0000 
0.0000 0.0000 0.0000 
0.0000 0.0000 0.0000 
0.0000 0.0000 0.0000 
0.0000 0.0000 0.0000 
0.0000 0.0000 0.0000 
0.0000 0.0000 0.0000 
0.0000 0.0000 0.0000 
0.0000 0.0000 0.0000 
0.0000 0.0000 0.0000 
0.0000 0.0000 0.0000 
0.0000 0.0000 0.0000 
0.0000 0.0000 0.0000 
0.0000 0.0000 0.0000 
0.0000 0.0000 0.0000 
0.0000 0.0000 0.0000 
0.0000 0.0000 0.0000 
0.0000 0.0000 0.0000 
0.0000 0.0000 0.0000 
0.0000 0.0000 0.0000 
0.0000 0.0000 0.0000 
0.0000 0.0000 0.0000 
0.0000 0.0000 0.0000 
0.0000 0.0000 0.0000 
0.0000 0.0000 0.0000 
0.0000 0.0000 0.0000 
0.0000 0.0000 0.0000 
0.0000 0.0000 0.0000 
0.0000 0.0000 0.0000 
0.0000 0.0000 0.0000 
0.0000 0.0000 0.0000 
0.0000 0.0000 0.0000 
0.0000 0.0000 0.0000 
0.0000 0.0000 0.0000 
0.0000 0.0000 0.0000 
0.0000 0.0000 0.0000 
0.0000 0.0000 0.0000 
0.0000 0.0000 0.0000 
0.0000 0.0000 0.0000 
0.0000 0.0000 0.0000 
0.0000 0.0000 0.0000 
0.0000 0.0000 0.0000 
0.0000 0.0000 0.0000 
0.0000 0.0000 0.0000 
0.0000 0.0000 0.0000 
0.0000 0.0000 0.0000 
0.0000 0.0000 0.0000 
0.0000 0.0000 0.0000 
0.0000 0.0000 0.0000 
0.0000 0.0000 0.0000 
0.0000 0.0000 0.0000 
0.0000 0.0000 0.0000 
0.0000 0.0000 0.0000 
0.0000 0.0000 0.0000 
0.0000 0.0000 0.0000 
0.0000 0.0000 0.0000 
0.0000 0.0000 0.0000 
0.0000 0.0000 0.0000 
0.0000 0.0000 0.0000 
0.0000 0.0000 0.0000 
0.0000 0.0000 0.0000 
0.0000 0.0000 0.0000 
0.0000 0.0000 0.0000 
0.0000 0.0000 0.0000 
0.0000 0.0000 0.0000 
0.0000 0.0000 0.0000 
0.0000 0.0000 0.0000 
0.0000 0.0000 0.0000 
0.0000 0.0000 0.0000 
0.0000 0.0000 0.0000 
0.0000 0.0000 0.0000 
0.0000 0.0000 0.0000 
0.0000 0.0000 0.0000 
0.0000 0.0000 0.0000 
0.0000 0.0000 0.0000 
0.0000 0.0000 0.0000 
0.0000 0.0000 0.0000 
0.0000 0.0000 0.0000 
0.0000 0.0000 0.0000 
0.0000 0.0000 0.0000 
0.0000 0.0000 0.0000 
0.0000 0.0000 0.0000 
0.0000 0.0000 0.0000 
0.0000 0.0000 0.0000 
0.0000 0.0000 0.0000 
0.0000 0.0000 0.0000 
0.0000 0.0000 0.0000 
0.0000 0.0000 0.0000 
0.0000 0.0000 0.0000 
0.0000 0.0000 0.0000 
0.0000 0.0000 0.0000 
0.0000 0.0000 0.0000 
0.0000 0.0000 0.0000 
0.0000 0.0000 0.0000 
0.0000 0.0000 0.0000 
0.0000 0.0000 0.0000 
0.0000 0.0000 0.0000 
0.0000 0.0000 0.0000 
0.0000 0.0000 0.0000 
0.0000 0.0000 0.0000 
0.0000 0.0000 0.0000 
0.0000 0.0000 0.0000 
0.0000 0.0000 0.0000 
0.0000 0.0000 0.0000 
0.0000 0.0000 0.0000 
0.0000 0.0000 0.0000 
0.0000 0.0000 0.0000 
0.0000 0.0000 0.0000 
0.0000 0.0000 0.0000 
0.0000 0.0000 0.0000 
0.0000 0.0000 0.0000 
0.0000 0.0000 0.0000 
0.0000 0.0000 0.0000 
0.0000 0.0000 0.0000 
0.0000 0.0000 0.0000 
0.0000 0.0000 0.0000 
0.0000 0.0000 0.0000 
0.0000 0.0000 0.0000 
0.0000 0.0000 0.0000 
0.0000 0.0000 0.0000 
0.0000 0.0000 0.0000 
0.0000 0.0000 0.0000 
0.0000 0.0000 0.0000 
0.0000 0.0000 0.0000 
0.0000 0.0000 0.0000 
0.0000 0.0000 0.0000 
0.0000 0.0000 0.0000 
0.0000 0.0000 0.0000 
0.0000 0.0000 0.0000 
0.0000 0.0000 0.0000 
0.0000 0.0000 0.0000 
0.0000 0.0000 0.0000 
0.0000 0.0000 0.0000 
0.0000 0.0000 0.0000 
0.0000 0.0000 0.0000 
0.0000 0.0000 0.0000 
0.0000 0.0000 0.0000 
0.0000 0.0000 0.0000 
0.0000 0.0000 0.0000 
0.0000 0.0000 0.0000 
0.0000 0.0000 0.0000 
0.0000 0.0000 0.0000 
0.0000 0.0000 0.0000 
0.0000 0.0000 0.0000 
0.0000 0.0000 0.0000 
0.0000 0.0000 0.0000 
0.0000 0.0000 0.0000 
0.0000 0.0000 0.0000 
0.0000 0.0000 0.0000 
0.0000 0.0000 0.0000 
0.0000 0.0000 0.0000 
0.0000 0.0000 0.0000 
0.0000 0.0000 0.0000 
0.0000 0.0000 0.0000 
0.0000 0.0000 0.0000 
0.0000 0.0000 0.0000 
0.0000 0.0000 0.0000 
0.0000 0.0000 0.0000 
0.0000 0.0000 0.0000 
0.0000 0.0000 0.0000 
0.0000 0.0000 0.0000 
0.0000 0.0000 0.0000 
0.0000 0.0000 0.0000 
0.0000 0.0000 0.0000 
0.0000 0.0000 0.0000 
0.0000 0.0000 0.0000 
0.0000 0.0000 0.0000 
0.0000 0.0000 0.0000 
0.0000 0.0000 0.0000 
0.0000 0.0000 0.0000 
0.0000 0.0000 0.0000 
0.0000 0.0000 0.0000 
0.0000 0.0000 0.0000 
0.0000 0.0000 0.0000 
0.0000 0.0000 0.0000 
0.0000 0.0000 0.0000 
0.0000 0.0000 0.0000 
0.0000 0.0000 0.0000 
0.0000 0.0000 0.0000 
0.0000 0.0000 0.0000 
0.0000 0.0000 0.0000 
0.0000 0.0000 0.0000 
0.0000 0.0000 0.0000 
0.0000 0.0000 0.0000 
0.0000 0.0000 0.0000 
0.0000 0.0000 0.0000 
0.0000 0.0000 0.0000 
0.0000 0.0000 0.0000 
0.0000 0.0000 0.0000 
0.0000 0.0000 0.0000 
0.0000 0.0000 0.0000 
0.0000 0.0000 0.0000 
0.0000 0.0000 0.0000 
0.0000 0.0000 0.0000 
0.0000 0.0000 0.0000 
0.0000 0.0000 0.0000 
0.0000 0.0000 0.0000 
0.0000 0.0000 0.0000 
0.0000 0.0000 0.0000 
0.0000 0.0000 0.0000 
0.0000 0.0000 0.0000 
0.0000 0.0000 0.0000 
0.0000 0.0000 0.0000 
0.0000 0.0000 0.0000 
0.0000 0.0000 0.0000 
0.0000 0.0000 0.0000 
0.0000 0.0000 0.0000 
0.0000 0.0000 0.0000 
0.0000 0.0000 0.0000 
0.0000 0.0000 0.0000 
0.0000 0.0000 0.0000 
0.0000 0.0000 0.0000 
0.0000 0.0000 0.0000 
0.0000 0.0000 0.0000 
0.0000 0.0000 0.0000 
0.0000 0.0000 0.0000 
0.0000 0.0000 0.0000 
0.0000 0.0000 0.0000 
0.0000 0.0000 0.0000 
0.0000 0.0000 0.0000 
0.0000 0.0000 0.0000 
0.0000 0.0000 0.0000 
0.0000 0.0000 0.0000 
0.0000 0.0000 0.0000 
0.0000 0.0000 0.0000 
0.0000 0.0000 0.0000 
0.0000 0.0000 0.0000 
0.0000 0.0000 0.0000 
0.0000 0.0000 0.0000 
0.0000 0.0000 0.0000 
0.0000 0.0000 0.0000 
0.0000 0.0000 0.0000 
0.0000 0.0000 0.0000 
0.0000 0.0000 0.0000 
0.0000 0.0000 0.0000 
0.0000 0.0000 0.0000 
0.0000 0.0000 0.0000 
0.0000 0.0000 0.0000 
0.0000 0.0000 0.0000 
0.0000 0.0000 0.0000 
0.0000 0.0000 0.0000 
0.0000 0.0000 0.0000 
0.0000 0.0000 0.0000 
0.0000 0.0000 0.0000 
0.0000 0.0000 0.0000 
0.0000 0.0000 0.0000 
0.0000 0.0000 0.0000 
0.0000 0.0000 0.0000 
0.0000 0.0000 0.0000 
0.0000 0.0000 0.0000 
0.0000 0.0000 0.0000 
0.0000 0.0000 0.0000 
0.0000 0.0000 0.0000 
0.0000 0.0000 0.0000 
0.0000 0.0000 0.0000 
0.0000 0.0000 0.0000 
0.0000 0.0000 0.0000 
0.0000 0.0000 0.0000 
0.0000 0.0000 0.0000 
0.0000 0.0000 0.0000 
0.0000 0.0000 0.0000 
0.0000 0.0000 0.0000 
0.0000 0.0000 0.0000 
0.0000 0.0000 0.0000 
0.0000 0.0000 0.0000 
0.0000 0.0000 0.0000 
0.0000 0.0000 0.0000 
0.0000 0.0000 0.0000 
0.0000 0.0000 0.0000 
0.0000 0.0000 0.0000 
0.0000 0.0000 0.0000 
0.0000 0.0000 0.0000 
0.0000 0.0000 0.0000 
0.0000 0.0000 0.0000 
0.0000 0.0000 0.0000 
0.0000 0.0000 0.0000 
0.0000 0.0000 0.0000 
0.0000 0.0000 0.0000 
0.0000 0.0000 0.0000 
0.0000 0.0000 0.0000 
0.0000 0.0000 0.0000 
0.0000 0.0000 0.0000 
0.0000 0.0000 0.0000 
0.0000 0.0000 0.0000 
0.0000 0.0000 0.0000 
0.0000 0.0000 0.0000 
0.0000 0.0000 0.0000 
0.0000 0.0000 0.0000 
0.0000 0.0000 0.0000 
0.0000 0.0000 0.0000 
0.0000 0.0000 0.0000 
0.0000 0.0000 0.0000 
0.0000 0.0000 0.0000 
0.0000 0.0000 0.0000 
0.0000 0.0000 0.0000 
0.0000 0.0000 0.0000 
0.0000 0.0000 0.0000 
0.0000 0.0000 0.0000 
0.0000 0.0000 0.0000 
0.0000 0.0000 0.0000 
0.0000 0.0000 0.0000 
0.0000 0.0000 0.0000 
0.0000 0.0000 0.0000 
0.0000 0.0000 0.0000 
0.0000 0.0000 0.0000 
0.0000 0.0000 0.0000 
0.0000 0.0000 0.0000 
0.0000 0.0000 0.0000 
0.0000 0.0000 0.0000 
0.0000 0.0000 0.0000 
0.0000 0.0000 0.0000 
0.0000 0.0000 0.0000 
0.0000 0.0000 0.0000 
0.0000 0.0000 0.0000 
0.0000 0.0000 0.0000 
0.0000 0.0000 0.0000 
0.0000 0.0000 0.0000 
0.0000 0.0000 0.0000 
0.0000 0.0000 0.0000 
0.0000 0.0000 0.0000 
0.0000 0.0000 0.0000 
0.0000 0.0000 0.0000 
0.0000 0.0000 0.0000 
0.0000 0.0000 0.0000 
0.0000 0.0000 0.0000 
0.0000 0.0000 0.0000 
0.0000 0.0000 0.0000 
0.0000 0.0000 0.0000 
0.0000 0.0000 0.0000 
0.0000 0.0000 0.0000 
0.0000 0.0000 0.0000 
0.0000 0.0000 0.0000 
0.0000 0.0000 0.0000 
0.0000 0.0000 0.0000 
0.0000 0.0000 0.0000 
0.0000 0.0000 0.0000 
0.0000 0.0000 0.0000 
0.0000 0.0000 0.0000 
0.0000 0.0000 0.0000 
0.0000 0.0000 0.0000 
0.0000 0.0000 0.0000 
0.0000 0.0000 0.0000 
0.0000 0.0000 0.0000 
0.0000 0.0000 0.0000 
0.0000 0.0000 0.0000 
0.0000 0.0000 0.0000 
0.0000 0.0000 0.0000 
0.0000 0.0000 0.0000 
0.0000 0.0000 0.0000 
0.0000 0.0000 0.0000 
0.0000 0.0000 0.0000 
0.0000 0.0000 0.0000 
0.0000 0.0000 0.0000 
0.0000 0.0000 0.0000 
0.0000 0.0000 0.0000 
0.0000 0.0000 0.0000 
0.0000 0.0000 0.0000 
0.0000 0.0000 0.0000 
0.0000 0.0000 0.0000 
0.0000 0.0000 0.0000 
0.0000 0.0000 0.0000 
0.0000 0.0000 0.0000 
0.0000 0.0000 0.0000 
0.0000 0.0000 0.0000 
0.0000 0.0000 0.0000 
0.0000 0.0000 0.0000 
0.0000 0.0000 0.0000 
0.0000 0.0000 0.0000 
0.0000 0.0000 0.0000 
0.0000 0.0000 0.0000 
0.0000 0.0000 0.0000 
0.0000 0.0000 0.0000 
0.0000 0.0000 0.0000 
0.0000 0.0000 0.0000 
0.0000 0.0000 0.0000 
0.0000 0.0000 0.0000 
0.0000 0.0000 0.0000 
0.0000 0.0000 0.0000 
0.0000 0.0000 0.0000 
0.0000 0.0000 0.0000 
0.0000 0.0000 0.0000 
0.0000 0.0000 0.0000 
0.0000 0.0000 0.0000 
0.0000 0.0000 0.0000 
0.0000 0.0000 0.0000 
0.0000 0.0000 0.0000 
0.0000 0.0000 0.0000 
0.0000 0.0000 0.0000 
0.0000 0.0000 0.0000 
0.0000 0.0000 0.0000 
0.0000 0.0000 0.0000 
0.0000 0.0000 0.0000 
0.0000 0.0000 0.0000 
0.0000 0.0000 0.0000 
0.0000 0.0000 0.0000 
0.0000 0.0000 0.0000 
0.0000 0.0000 0.0000 
0.0000 0.0000 0.0000 
0.0000 0.0000 0.0000 
0.0000 0.0000 0.0000 
0.0000 0.0000 0.0000 
0.0000 0.0000 0.0000 
0.0000 0.0000 0.0000 
0.0000 0.0000 0.0000 
0.0000 0.0000 0.0000 
0.0000 -0.0000 0.0000 
0.0000 0.0000 -0.0000 
0.0000 0.0000 0.0000 
-0.0000 -0.0000 -0.0000 
0.0000 -0.0000 -0.0000 
0.0000 0.0000 0.0000 
0.0000 -0.0000 0.0000 
0.0000 0.0000 0.0000 
0.0000 0.0000 0.0000 
0.0000 -0.0000 0.0000 
0.0000 -0.0000 0.0000 
0.0000 0.0000 0.0000 
0.0000 0.0000 0.0000 
0.0000 0.0000 -0.0000 
0.0000 -0.0000 0.0000 
0.0000 0.0000 -0.0000 
0.0000 -0.0000 -0.0000 
0.0000 -0.0000 -0.0000 
-0.0000 -0.0000 0.0000 
0.0000 0.0000 0.0000 
0.0000 -0.0000 0.0000 
0.0000 0.0000 -0.0000 
0.0000 -0.0000 -0.0000 
-0.0000 0.0000 -0.0000 
0.0000 0.0000 -0.0000 
0.0000 0.0000 0.0000 
0.0000 0.0000 0.0000 
0.0000 0.0000 -0.0000 
0.0000 0.0000 0.0000 
0.0000 0.0000 0.0000 
0.0000 0.0000 -0.0000 
0.0000 0.0000 -0.0000 
0.0000 0.0000 0.0000 
0.0000 0.0000 0.0000 
0.0000 0.0000 -0.0000 
0.0000 0.0000 0.0000 
0.0000 0.0000 0.0000 
0.0000 0.0000 -0.0000 
0.0000 0.0000 0.0000 
0.0000 0.0000 -0.0000 
0.0000 -0.0000 0.0000 
0.0000 -0.0000 0.0000 
0.0000 0.0000 -0.0000 
0.0000 0.0000 -0.0000 
0.0000 0.0000 0.0000 
0.0000 -0.0000 0.0000 
0.0000 0.0000 -0.0000 
0.0000 0.0000 0.0000 
-0.0000 0.0000 0.0000 
0.0000 0.0000 0.0000 
0.0000 0.0000 0.0000 
0.0000 0.0000 -0.0000 
0.0000 0.0000 0.0000 
0.0000 0.0000 0.0000 
0.0000 0.0000 -0.0000 
0.0000 0.0000 0.0000 
0.0000 0.0000 -0.0000 
0.0000 0.0000 0.0000 
0.0000 0.0000 0.0000 
0.0000 0.0000 -0.0000 
0.0000 0.0000 -0.0000 
0.0000 -0.0000 0.0000 
0.0000 0.0000 0.0000 
0.0000 0.0000 0.0000 
0.0000 0.0000 0.0000 
0.0000 0.0000 -0.0000 
0.0000 0.0000 -0.0000 
-0.0000 0.0000 0.0000 
0.0000 0.0000 0.0000 
0.0000 0.0000 0.0000 
0.0000 0.0000 0.0000 
0.0000 0.0000 -0.0000 
0.0000 0.0000 0.0000 
0.0000 0.0000 0.0000 
0.0000 0.0000 0.0000 
0.0000 0.0000 -0.0000 
0.0000 0.0000 0.0000 
0.0000 0.0000 0.0000 
0.0000 0.0000 0.0000 
0.0000 0.0000 0.0000 
0.0000 0.0000 -0.0000 
0.0000 0.0000 0.0000 
0.0000 0.0000 -0.0000 
0.0000 0.0000 0.0000 
0.0000 0.0000 0.0000 
0.0000 0.0000 0.0000 
-0.0000 0.0000 -0.0000 
0.0000 0.0000 -0.0000 
0.0000 0.0000 0.0000 
-0.0000 0.0000 0.0000 
0.0000 0.0000 -0.0000 
0.0000 0.0000 0.0000 
0.0000 0.0000 -0.0000 
0.0000 0.0000 0.0000 
0.0000 0.0000 0.0000 
0.0000 0.0000 0.0000 
0.0000 -0.0000 -0.0000 
0.0000 0.0000 0.0000 
-0.0000 0.0000 -0.0000 
-0.0000 0.0000 0.0000 
0.0000 0.0000 0.0000 
0.0000 0.0000 0.0000 
0.0000 0.0000 0.0000 
0.0000 0.0000 0.0000 
0.0000 0.0000 0.0000 
0.0000 0.0000 0.0000 
0.0000 -0.0000 -0.0000 
0.0000 0.0000 0.0000 
0.0000 0.0000 0.0000 
0.0000 0.0000 0.0000 
0.0000 0.0000 0.0000 
0.0000 0.0000 0.0000 
0.0000 0.0000 0.0000 
0.0000 0.0000 -0.0000 
0.0000 0.0000 -0.0000 
0.0000 0.0000 0.0000 
0.0000 0.0000 0.0000 
0.0000 0.0000 0.0000 
0.0000 0.0000 0.0000 
0.0000 0.0000 0.0000 
0.0000 0.0000 0.0000 
0.0000 0.0000 0.0000 
0.0000 0.0000 -0.0000 
-0.0000 0.0000 0.0000 
0.0000 0.0000 -0.0000 
0.0000 0.0000 0.0000 
0.0000 0.0000 0.0000 
0.0000 0.0000 0.0000 
0.0000 0.0000 0.0000 
0.0000 0.0000 -0.0000 
0.0000 -0.0000 0.0000 
0.0000 -0.0000 0.0000 
0.0000 0.0000 -0.0000 
0.0000 0.0000 0.0000 
0.0000 0.0000 0.0000 
0.0000 0.0000 -0.0000 
0.0000 0.0000 0.0000 
0.0000 0.0000 -0.0000 
0.0000 0.0000 0.0000 
0.0000 0.0000 0.0000 
0.0000 0.0000 -0.0000 
0.0000 0.0000 -0.0000 
0.0000 0.0000 0.0000 
0.0000 0.0000 0.0000 
0.0000 0.0000 0.0000 
0.0000 0.0000 -0.0000 
0.0000 0.0000 -0.0000 
0.0000 0.0000 -0.0000 
0.0000 0.0000 -0.0000 
0.0000 0.0000 0.0000 
0.0000 0.0000 -0.0000 
0.0000 0.0000 0.0000 
0.0000 0.0000 0.0000 
0.0000 0.0000 0.0000 
0.0000 0.0000 -0.0000 
0.0000 0.0000 -0.0000 
0.0000 0.0000 0.0000 
0.0000 -0.0000 0.0000 
0.0000 0.0000 -0.0000 
0.0000 0.0000 -0.0000 
0.0000 0.0000 0.0000 
0.0000 0.0000 0.0000 
0.0000 0.0000 0.0000 
0.0000 0.0000 -0.0000 
0.0000 0.0000 0.0000 
0.0000 0.0000 0.0000 
0.0000 0.0000 0.0000 
0.0000 0.0000 -0.0000 
0.0000 0.0000 -0.0000 
0.0000 0.0000 0.0000 
0.0000 0.0000 0.0000 
0.0000 0.0000 -0.0000 
0.0000 0.0000 -0.0000 
-0.0000 0.0000 0.0000 
0.0000 0.0000 0.0000 
0.0000 0.0000 0.0000 
0.0000 0.0000 0.0000 
0.0000 0.0000 0.0000 
0.0000 0.0000 -0.0000 
0.0000 0.0000 -0.0000 
0.0000 0.0000 0.0000 
0.0000 0.0000 0.0000 
0.0000 0.0000 0.0000 
0.0000 0.0000 0.0000 
0.0000 0.0000 -0.0000 
0.0000 0.0000 0.0000 
0.0000 0.0000 -0.0000 
0.0000 0.0000 0.0000 
0.0000 0.0000 -0.0000 
0.0000 0.0000 -0.0000 
0.0000 0.0000 0.0000 
0.0000 0.0000 0.0000 
0.0000 0.0000 -0.0000 
0.0000 -0.0000 -0.0000 
0.0000 0.0000 0.0000 
0.0000 0.0000 -0.0000 
0.0000 0.0000 -0.0000 
0.0000 0.0000 -0.0000 
-0.0000 0.0000 0.0000 
0.0000 0.0000 -0.0000 
0.0000 0.0000 0.0000 
0.0000 0.0000 0.0000 
0.0000 0.0000 -0.0000 
0.0000 0.0000 0.0000 
0.0000 0.0000 0.0000 
0.0000 0.0000 0.0000 
0.0000 0.0000 0.0000 
0.0000 0.0000 0.0000 
0.0000 0.0000 0.0000 
0.0000 0.0000 0.0000 
0.0000 0.0000 0.0000 
0.0000 0.0000 0.0000 
0.0000 0.0000 0.0000 
0.0000 0.0000 0.0000 
-0.0000 0.0000 0.0000 
0.0000 0.0000 -0.0000 
0.0000 0.0000 0.0000 
0.0000 0.0000 0.0000 
0.0000 0.0000 0.0000 
0.0000 0.0000 -0.0000 
0.0000 0.0000 0.0000 
0.0000 0.0000 0.0000 
0.0000 0.0000 0.0000 
-0.0000 0.0000 0.0000 
-0.0000 0.0000 -0.0000 
0.0000 0.0000 0.0000 
-0.0000 0.0000 0.0000 
0.0000 0.0000 -0.0000 
0.0000 0.0000 -0.0000 
0.0000 0.0000 0.0000 
0.0000 0.0000 -0.0000 
0.0000 0.0000 -0.0000 
0.0000 0.0000 0.0000 
0.0000 -0.0000 -0.0000 
0.0000 0.0000 -0.0000 
0.0000 0.0000 0.0000 
-0.0000 0.0000 -0.0000 
0.0000 0.0000 0.0000 
0.0000 0.0000 -0.0000 
0.0000 0.0000 0.0000 
0.0000 0.0000 0.0000 
0.0000 -0.0000 -0.0000 
0.0000 0.0000 -0.0000 
0.0000 0.0000 -0.0000 
0.0000 0.0000 0.0000 
-0.0000 0.0000 -0.0000 
0.0000 0.0000 -0.0000 
0.0000 0.0000 0.0000 
-0.0000 0.0000 -0.0000 
0.0000 0.0000 -0.0000 
0.0000 0.0000 0.0000 
0.0000 0.0000 0.0000 
0.0000 0.0000 0.0000 
0.0000 0.0000 -0.0000 
0.0000 0.0000 0.0000 
0.0000 -0.0000 -0.0000 
0.0000 0.0000 0.0000 
0.0000 0.0000 -0.0000 
0.0000 0.0000 0.0000 
0.0000 0.0000 -0.0000 
0.0000 0.0000 -0.0000 
0.0000 0.0000 0.0000 
0.0000 0.0000 -0.0000 
0.0000 0.0000 0.0000 
0.0000 0.0000 -0.0000 
0.0000 0.0000 0.0000 
0.0000 0.0000 0.0000 
0.0000 0.0000 -0.0000 
0.0000 0.0000 0.0000 
0.0000 0.0000 0.0000 
0.0000 0.0000 0.0000 
0.0000 0.0000 -0.0000 
-0.0000 0.0000 0.0000 
-0.0000 0.0000 -0.0000 
0.0000 0.0000 0.0000 
0.0000 0.0000 0.0000 
-0.0000 0.0000 -0.0000 
0.0000 0.0000 0.0000 
0.0000 0.0000 0.0000 
0.0000 0.0000 0.0000 
0.0000 0.0000 0.0000 
0.0000 0.0000 0.0000 
0.0000 0.0000 -0.0000 
0.0000 0.0000 0.0000 
0.0000 0.0000 0.0000 
-0.0000 0.0000 0.0000 
0.0000 0.0000 0.0000 
0.0000 0.0000 0.0000 
0.0000 0.0000 0.0000 
0.0000 0.0000 -0.0000 
0.0000 0.0000 0.0000 
0.0000 0.0000 -0.0000 
0.0000 0.0000 -0.0000 
0.0000 0.0000 0.0000 
0.0000 0.0000 0.0000 
0.0000 0.0000 0.0000 
0.0000 0.0000 -0.0000 
0.0000 0.0000 0.0000 
0.0000 0.0000 -0.0000 
0.0000 0.0000 -0.0000 
0.0000 0.0000 0.0000 
0.0000 0.0000 0.0000 
0.0000 0.0000 0.0000 
0.0000 0.0000 -0.0000 
0.0000 0.0000 0.0000 
0.0000 -0.0000 -0.0000 
0.0000 0.0000 0.0000 
0.0000 0.0000 0.0000 
0.0000 0.0000 0.0000 
0.0000 0.0000 0.0000 
0.0000 0.0000 -0.0000 
0.0000 0.0000 -0.0000 
0.0000 0.0000 0.0000 
0.0000 0.0000 -0.0000 
0.0000 0.0000 0.0000 
0.0000 -0.0000 0.0000 
0.0000 0.0000 0.0000 
0.0000 0.0000 -0.0000 
-0.0000 0.0000 0.0000 
0.0000 0.0000 -0.0000 
0.0000 0.0000 -0.0000 
0.0000 0.0000 0.0000 
-0.0000 0.0000 0.0000 
-0.0000 0.0000 0.0000 
0.0000 0.0000 0.0000 
0.0000 0.0000 -0.0000 
0.0000 0.0000 -0.0000 
0.0000 0.0000 -0.0000 
0.0000 0.0000 0.0000 
0.0000 0.0000 -0.0000 
0.0000 0.0000 -0.0000 
0.0000 0.0000 0.0000 
0.0000 0.0000 0.0000 
0.0000 0.0000 0.0000 
0.0000 0.0000 0.0000 
0.0000 0.0000 -0.0000 
0.0000 0.0000 0.0000 
0.0000 0.0000 0.0000 
0.0000 0.0000 0.0000 
0.0000 0.0000 -0.0000 
0.0000 0.0000 0.0000 
0.0000 -0.0000 0.0000 
0.0000 0.0000 -0.0000 
0.0000 0.0000 -0.0000 
0.0000 0.0000 0.0000 
0.0000 0.0000 0.0000 
0.0000 0.0000 -0.0000 
0.0000 0.0000 0.0000 
-0.0000 0.0000 -0.0000 
0.0000 0.0000 0.0000 
0.0000 0.0000 0.0000 
0.0000 0.0000 0.0000 
0.0000 0.0000 0.0000 
0.0000 0.0000 0.0000 
0.0000 0.0000 0.0000 
0.0000 0.0000 0.0000 
0.0000 0.0000 0.0000 
0.0000 0.0000 -0.0000 
0.0000 0.0000 0.0000 
0.0000 0.0000 0.0000 
0.0000 0.0000 0.0000 
0.0000 0.0000 -0.0000 
0.0000 0.0000 -0.0000 
-0.0000 -0.0000 0.0000 
0.0000 0.0000 0.0000 
0.0000 0.0000 -0.0000 
0.0000 0.0000 0.0000 
0.0000 0.0000 0.0000 
0.0000 0.0000 0.0000 
0.0000 0.0000 -0.0000 
0.0000 0.0000 -0.0000 
0.0000 0.0000 0.0000 
0.0000 0.0000 0.0000 
-0.0000 0.0000 0.0000 
0.0000 0.0000 -0.0000 
0.0000 0.0000 -0.0000 
0.0000 0.0000 0.0000 
0.0000 0.0000 -0.0000 
0.0000 0.0000 0.0000 
0.0000 0.0000 -0.0000 
0.0000 0.0000 -0.0000 
0.0000 0.0000 0.0000 
0.0000 0.0000 -0.0000 
0.0000 0.0000 -0.0000 
0.0000 0.0000 -0.0000 
0.0000 -0.0000 0.0000 
0.0000 0.0000 -0.0000 
0.0000 0.0000 0.0000 
0.0000 0.0000 -0.0000 
0.0000 0.0000 0.0000 
0.0000 0.0000 -0.0000 
0.0000 0.0000 0.0000 
-0.0000 0.0000 -0.0000 
0.0000 0.0000 0.0000 
0.0000 0.0000 0.0000 
0.0000 0.0000 0.0000 
0.0000 0.0000 0.0000 
0.0000 -0.0000 0.0000 
0.0000 0.0000 0.0000 
0.0000 0.0000 0.0000 
-0.0000 0.0000 0.0000 
0.0000 0.0000 0.0000 
0.0000 0.0000 -0.0000 
0.0000 0.0000 0.0000 
0.0000 -0.0000 0.0000 
0.0000 0.0000 0.0000 
0.0000 0.0000 0.0000 
0.0000 0.0000 0.0000 
0.0000 0.0000 0.0000 
0.0000 0.0000 -0.0000 
0.0000 0.0000 -0.0000 
0.0000 0.0000 0.0000 
0.0000 0.0000 -0.0000 
-0.0000 0.0000 0.0000 
0.0000 0.0000 0.0000 
0.0000 0.0000 0.0000 
0.0000 0.0000 -0.0000 
0.0000 0.0000 0.0000 
-0.0000 0.0000 -0.0000 
0.0000 0.0000 -0.0000 
0.0000 0.0000 0.0000 
0.0000 0.0000 0.0000 
0.0000 0.0000 -0.0000 
-0.0000 0.0000 -0.0000 
0.0000 0.0000 -0.0000 
0.0000 0.0000 -0.0000 
0.0000 0.0000 -0.0000 
0.0000 0.0000 0.0000 
0.0000 0.0000 -0.0000 
0.0000 0.0000 -0.0000 
0.0000 0.0000 0.0000 
0.0000 0.0000 -0.0000 
0.0000 0.0000 0.0000 
0.0000 0.0000 0.0000 
0.0000 0.0000 0.0000 
0.0000 0.0000 -0.0000 
0.0000 0.0000 0.0000 
0.0000 0.0000 0.0000 
0.0000 0.0000 -0.0000 
0.0000 0.0000 -0.0000 
0.0000 0.0000 -0.0000 
0.0000 -0.0000 0.0000 
0.0000 0.0000 -0.0000 
0.0000 0.0000 0.0000 
-0.0000 0.0000 -0.0000 
0.0000 0.0000 0.0000 
0.0000 0.0000 0.0000 
0.0000 0.0000 -0.0000 
-0.0000 0.0000 0.0000 
0.0000 0.0000 -0.0000 
0.0000 0.0000 0.0000 
0.0000 -0.0000 0.0000 
0.0000 0.0000 -0.0000 
0.0000 0.0000 0.0000 
0.0000 0.0000 0.0000 
0.0000 0.0000 -0.0000 
-0.0000 0.0000 0.0000 
0.0000 0.0000 -0.0000 
0.0000 0.0000 0.0000 
0.0000 0.0000 -0.0000 
0.0000 0.0000 0.0000 
0.0000 0.0000 0.0000 
0.0000 0.0000 0.0000 
-0.0000 0.0000 0.0000 
0.0000 0.0000 0.0000 
0.0000 0.0000 0.0000 
0.0000 0.0000 0.0000 
0.0000 0.0000 0.0000 
0.0000 -0.0000 -0.0000 
0.0000 0.0000 0.0000 
0.0000 0.0000 0.0000 
0.0000 0.0000 -0.0000 
0.0000 0.0000 0.0000 
-0.0000 0.0000 -0.0000 
0.0000 0.0000 -0.0000 
0.0000 0.0000 0.0000 
0.0000 0.0000 -0.0000 
0.0000 0.0000 0.0000 
0.0000 0.0000 0.0000 
0.0000 0.0000 0.0000 
0.0000 0.0000 0.0000 
0.0000 0.0000 -0.0000 
0.0000 0.0000 0.0000 
0.0000 0.0000 0.0000 
0.0000 0.0000 -0.0000 
0.0000 0.0000 0.0000 
0.0000 0.0000 -0.0000 
0.0000 0.0000 -0.0000 
0.0000 0.0000 -0.0000 
0.0000 -0.0000 -0.0000 
0.0000 0.0000 -0.0000 
0.0000 0.0000 -0.0000 
0.0000 0.0000 -0.0000 
0.0000 0.0000 0.0000 
0.0000 0.0000 -0.0000 
0.0000 0.0000 0.0000 
0.0000 0.0000 -0.0000 
0.0000 0.0000 0.0000 
-0.0000 0.0000 0.0000 
0.0000 0.0000 0.0000 
0.0000 0.0000 -0.0000 
0.0000 0.0000 0.0000 
0.0000 0.0000 0.0000 
0.0000 0.0000 0.0000 
0.0000 0.0000 0.0000 
0.0000 0.0000 0.0000 
0.0000 0.0000 0.0000 
0.0000 0.0000 0.0000 
0.0000 0.0000 0.0000 
0.0000 0.0000 0.0000 
0.0000 0.0000 0.0000 
0.0000 0.0000 -0.0000 
0.0000 0.0000 -0.0000 
0.0000 0.0000 0.0000 
0.0000 0.0000 0.0000 
0.0000 0.0000 0.0000 
0.0000 0.0000 0.0000 
0.0000 0.0000 -0.0000 
0.0000 0.0000 -0.0000 
0.0000 0.0000 0.0000 
0.0000 0.0000 0.0000 
0.0000 0.0000 0.0000 
0.0000 0.0000 -0.0000 
-0.0000 0.0000 -0.0000 
0.0000 0.0000 -0.0000 
-0.0000 0.0000 0.0000 
0.0000 0.0000 0.0000 
-0.0000 -0.0000 -0.0000 
0.0000 0.0000 -0.0000 
0.0000 0.0000 -0.0000 
0.0000 0.0000 0.0000 
0.0000 0.0000 -0.0000 
0.0000 0.0000 0.0000 
0.0000 0.0000 0.0000 
0.0000 0.0000 0.0000 
0.0000 0.0000 0.0000 
0.0000 0.0000 -0.0000 
0.0000 0.0000 -0.0000 
0.0000 0.0000 0.0000 
0.0000 0.0000 0.0000 
0.0000 0.0000 0.0000 
0.0000 -0.0000 -0.0000 
0.0000 0.0000 0.0000 
0.0000 0.0000 -0.0000 
0.0000 0.0000 -0.0000 
0.0000 0.0000 -0.0000 
0.0000 0.0000 -0.0000 
0.0000 0.0000 0.0000 
-0.0000 0.0000 0.0000 
0.0000 0.0000 0.0000 
0.0000 0.0000 0.0000 
-0.0000 0.0000 -0.0000 
0.0000 0.0000 0.0000 
0.0000 0.0000 0.0000 
0.0000 0.0000 0.0000 
0.0000 0.0000 -0.0000 
0.0000 -0.0000 0.0000 
0.0000 0.0000 -0.0000 
0.0000 0.0000 0.0000 
0.0000 0.0000 0.0000 
0.0000 0.0000 0.0000 
0.0000 0.0000 0.0000 
0.0000 0.0000 -0.0000 
0.0000 0.0000 0.0000 
0.0000 0.0000 -0.0000 
0.0000 0.0000 -0.0000 
0.0000 -0.0000 0.0000 
0.0000 0.0000 -0.0000 
0.0000 0.0000 0.0000 
0.0000 0.0000 -0.0000 
0.0000 0.0000 -0.0000 
0.0000 0.0000 0.0000 
0.0000 0.0000 0.0000 
0.0000 0.0000 -0.0000 
-0.0000 0.0000 -0.0000 
0.0000 0.0000 -0.0000 
0.0000 0.0000 0.0000 
0.0000 0.0000 -0.0000 
0.0000 0.0000 -0.0000 
0.0000 0.0000 -0.0000 
-0.0000 0.0000 -0.0000 
0.0000 0.0000 0.0000 
0.0000 0.0000 0.0000 
0.0000 0.0000 0.0000 
0.0000 -0.0000 -0.0000 
0.0000 0.0000 0.0000 
0.0000 0.0000 -0.0000 
0.0000 0.0000 -0.0000 
0.0000 0.0000 -0.0000 
0.0000 0.0000 0.0000 
0.0000 0.0000 0.0000 
0.0000 0.0000 -0.0000 
0.0000 0.0000 -0.0000 
0.0000 0.0000 0.0000 
0.0000 0.0000 -0.0000 
0.0000 0.0000 -0.0000 
0.0000 0.0000 0.0000 
0.0000 0.0000 -0.0000 
0.0000 0.0000 0.0000 
0.0000 0.0000 -0.0000 
0.0000 0.0000 0.0000 
0.0000 0.0000 -0.0000 
0.0000 0.0000 0.0000 
0.0000 0.0000 0.0000 
0.0000 0.0000 0.0000 
0.0000 0.0000 -0.0000 
-0.0000 0.0000 -0.0000 
0.0000 0.0000 -0.0000 
0.0000 0.0000 -0.0000 
0.0000 0.0000 0.0000 
0.0000 0.0000 0.0000 
0.0000 0.0000 -0.0000 
0.0000 0.0000 0.0000 
0.0000 0.0000 -0.0000 
0.0000 0.0000 -0.0000 
0.0000 0.0000 -0.0000 
0.0000 -0.0000 0.0000 
0.0000 0.0000 0.0000 
0.0000 0.0000 -0.0000 
-0.0000 0.0000 0.0000 
-0.0000 0.0000 0.0000 
0.0000 0.0000 -0.0000 
0.0000 0.0000 0.0000 
-0.0000 0.0000 0.0000 
0.0000 0.0000 0.0000 
0.0000 -0.0000 0.0000 
0.0000 0.0000 0.0000 
0.0000 0.0000 0.0000 
0.0000 -0.0000 0.0000 
0.0000 -0.0000 0.0000 
0.0000 -0.0000 0.0000 
0.0000 -0.0000 0.0000 
0.0000 0.0000 -0.0000 
0.0000 0.0000 0.0000 
0.0000 0.0000 0.0000 
0.0000 -0.0000 -0.0000 
-0.0000 -0.0000 0.0000 
0.0000 0.0000 -0.0000 
-0.0000 -0.0000 -0.0000 
-0.0000 0.0000 0.0000 
0.0000 0.0000 0.0000 
0.0000 -0.0000 -0.0000 
-0.0000 0.0000 0.0000 
-0.0000 -0.0000 0.0000 
0.0000 0.0000 0.0000 
0.0000 -0.0000 0.0000 
0.0000 0.0000 -0.0000 
-0.0000 -0.0000 0.0000 
-0.0000 0.0000 0.0000 
0.0000 0.0000 -0.0000 
0.0000 0.0000 0.0000 
0.0000 -0.0000 -0.0000 
0.0000 0.0000 0.0000 
0.0000 0.0000 0.0000 
0.0000 0.0000 0.0000 
0.0000 0.0000 0.0000 
0.0000 0.0000 -0.0000 
0.0000 0.0000 -0.0000 
0.0000 0.0000 0.0000 
0.0000 0.0000 -0.0000 
0.0000 0.0000 0.0000 
0.0000 0.0000 0.0000 
0.0000 0.0000 0.0000 
0.0000 0.0000 0.0000 
0.0000 0.0000 -0.0000 
0.0000 0.0000 0.0000 
0.0000 0.0000 0.0000 
0.0000 0.0000 -0.0000 
0.0000 -0.0000 -0.0000 
0.0000 -0.0000 0.0000 
0.0000 -0.0000 0.0000 
0.0000 -0.0000 0.0000 
0.0000 0.0000 0.0000 
-0.0000 0.0000 0.0000 
0.0000 0.0000 0.0000 
0.0000 -0.0000 0.0000 
0.0000 0.0000 0.0000 
0.0000 0.0000 0.0000 
0.0000 0.0000 -0.0000 
0.0000 0.0000 0.0000 
-0.0000 0.0000 0.0000 
0.0000 0.0000 0.0000 
0.0000 0.0000 0.0000 
0.0000 0.0000 0.0000 
0.0000 0.0000 -0.0000 
0.0000 0.0000 0.0000 
0.0000 0.0000 0.0000 
0.0000 0.0000 0.0000 
0.0000 0.0000 -0.0000 
0.0000 0.0000 0.0000 
0.0000 0.0000 -0.0000 
0.0000 0.0000 0.0000 
0.0000 0.0000 0.0000 
0.0000 0.0000 0.0000 
0.0000 -0.0000 -0.0000 
0.0000 0.0000 0.0000 
0.0000 0.0000 0.0000 
0.0000 0.0000 0.0000 
0.0000 0.0000 0.0000 
0.0000 0.0000 0.0000 
0.0000 0.0000 0.0000 
0.0000 0.0000 0.0000 
0.0000 0.0000 0.0000 
0.0000 0.0000 0.0000 
0.0000 0.0000 0.0000 
0.0000 0.0000 -0.0000 
-0.0000 -0.0000 0.0000 
0.0000 0.0000 0.0000 
-0.0000 0.0000 -0.0000 
0.0000 0.0000 0.0000 
0.0000 0.0000 0.0000 
0.0000 0.0000 -0.0000 
-0.0000 0.0000 0.0000 
0.0000 0.0000 0.0000 
0.0000 0.0000 -0.0000 
0.0000 0.0000 -0.0000 
0.0000 0.0000 0.0000 
0.0000 -0.0000 -0.0000 
0.0000 0.0000 0.0000 
0.0000 0.0000 -0.0000 
-0.0000 0.0000 0.0000 
0.0000 -0.0000 -0.0000 
-0.0000 0.0000 0.0000 
-0.0000 0.0000 0.0000 
0.0000 0.0000 0.0000 
0.0000 0.0000 0.0000 
0.0000 0.0000 0.0000 
0.0000 0.0000 0.0000 
-0.0000 0.0000 0.0000 
0.0000 0.0000 0.0000 
-0.0000 -0.0000 0.0000 
0.0000 0.0000 -0.0000 
0.0000 0.0000 0.0000 
0.0000 0.0000 0.0000 
0.0000 0.0000 -0.0000 
0.0000 0.0000 -0.0000 
0.0000 0.0000 0.0000 
0.0000 0.0000 0.0000 
0.0000 0.0000 0.0000 
0.0000 0.0000 -0.0000 
0.0000 0.0000 0.0000 
0.0000 0.0000 0.0000 
0.0000 -0.0000 -0.0000 
0.0000 0.0000 0.0000 
0.0000 0.0000 0.0000 
0.0000 0.0000 0.0000 
0.0000 0.0000 0.0000 
0.0000 0.0000 -0.0000 
0.0000 0.0000 0.0000 
-0.0000 0.0000 -0.0000 
0.0000 0.0000 0.0000 
0.0000 0.0000 0.0000 
0.0000 0.0000 0.0000 
0.0000 0.0000 0.0000 
0.0000 0.0000 -0.0000 
0.0000 0.0000 0.0000 
0.0000 0.0000 0.0000 
0.0000 -0.0000 -0.0000 
-0.0000 0.0000 0.0000 
0.0000 0.0000 0.0000 
0.0000 0.0000 -0.0000 
0.0000 0.0000 0.0000 
0.0000 0.0000 -0.0000 
0.0000 0.0000 -0.0000 
0.0000 0.0000 0.0000 
0.0000 0.0000 -0.0000 
-0.0000 0.0000 -0.0000 
0.0000 0.0000 0.0000 
0.0000 0.0000 0.0000 
0.0000 0.0000 0.0000 
0.0000 0.0000 0.0000 
0.0000 0.0000 -0.0000 
0.0000 -0.0000 -0.0000 
-0.0000 0.0000 -0.0000 
0.0000 0.0000 0.0000 
0.0000 0.0000 -0.0000 
0.0000 0.0000 0.0000 
0.0000 0.0000 0.0000 
0.0000 0.0000 0.0000 
0.0000 0.0000 0.0000 
0.0000 0.0000 0.0000 
0.0000 0.0000 0.0000 
0.0000 0.0000 0.0000 
0.0000 0.0000 0.0000 
0.0000 0.0000 -0.0000 
0.0000 0.0000 0.0000 
0.0000 0.0000 0.0000 
0.0000 0.0000 0.0000 
0.0000 -0.0000 0.0000 
0.0000 0.0000 -0.0000 
0.0000 0.0000 0.0000 
0.0000 0.0000 0.0000 
0.0000 0.0000 -0.0000 
0.0000 0.0000 -0.0000 
0.0000 0.0000 0.0000 
0.0000 -0.0000 0.0000 
0.0000 -0.0000 -0.0000 
0.0000 0.0000 0.0000 
-0.0000 0.0000 0.0000 
0.0000 0.0000 0.0000 
0.0000 0.0000 0.0000 
0.0000 0.0000 -0.0000 
0.0000 0.0000 0.0000 
0.0000 0.0000 -0.0000 
0.0000 0.0000 0.0000 
0.0000 0.0000 0.0000 
0.0000 0.0000 0.0000 
0.0000 0.0000 0.0000 
0.0000 0.0000 0.0000 
0.0000 0.0000 -0.0000 
0.0000 0.0000 0.0000 
-0.0000 0.0000 -0.0000 
0.0000 0.0000 0.0000 
0.0000 -0.0000 -0.0000 
0.0000 0.0000 -0.0000 
0.0000 0.0000 0.0000 
0.0000 0.0000 0.0000 
0.0000 0.0000 -0.0000 
0.0000 0.0000 -0.0000 
0.0000 0.0000 0.0000 
0.0000 0.0000 -0.0000 
0.0000 0.0000 -0.0000 
0.0000 0.0000 -0.0000 
-0.0000 0.0000 -0.0000 
0.0000 0.0000 0.0000 
0.0000 0.0000 0.0000 
0.0000 0.0000 0.0000 
0.0000 0.0000 0.0000 
0.0000 0.0000 0.0000 
0.0000 0.0000 -0.0000 
0.0000 0.0000 0.0000 
0.0000 0.0000 0.0000 
0.0000 0.0000 0.0000 
-0.0000 0.0000 0.0000 
0.0000 0.0000 -0.0000 
0.0000 -0.0000 0.0000 
0.0000 0.0000 -0.0000 
0.0000 0.0000 -0.0000 
0.0000 0.0000 0.0000 
0.0000 0.0000 -0.0000 
0.0000 0.0000 -0.0000 
-0.0000 0.0000 0.0000 
-0.0000 0.0000 0.0000 
0.0000 0.0000 0.0000 
0.0000 0.0000 -0.0000 
0.0000 0.0000 0.0000 
0.0000 0.0000 0.0000 
0.0000 0.0000 0.0000 
0.0000 0.0000 0.0000 
0.0000 0.0000 0.0000 
0.0000 0.0000 0.0000 
0.0000 0.0000 0.0000 
0.0000 0.0000 -0.0000 
0.0000 -0.0000 0.0000 
0.0000 0.0000 0.0000 
0.0000 0.0000 -0.0000 
0.0000 0.0000 0.0000 
0.0000 -0.0000 -0.0000 
0.0000 0.0000 0.0000 
0.0000 0.0000 0.0000 
0.0000 0.0000 0.0000 
0.0000 0.0000 0.0000 
0.0000 0.0000 0.0000 
0.0000 0.0000 -0.0000 
0.0000 0.0000 0.0000 
0.0000 0.0000 0.0000 
0.0000 0.0000 -0.0000 
-0.0000 -0.0000 0.0000 
0.0000 0.0000 -0.0000 
0.0000 0.0000 0.0000 
0.0000 0.0000 0.0000 
0.0000 0.0000 -0.0000 
0.0000 0.0000 0.0000 
-0.0000 0.0000 -0.0000 
0.0000 -0.0000 0.0000 
0.0000 0.0000 0.0000 
0.0000 0.0000 0.0000 
0.0000 0.0000 0.0000 
0.0000 0.0000 -0.0000 
0.0000 0.0000 0.0000 
-0.0000 0.0000 -0.0000 
-0.0000 0.0000 0.0000 
0.0000 0.0000 0.0000 
0.0000 0.0000 0.0000 
0.0000 0.0000 -0.0000 
0.0000 0.0000 0.0000 
-0.0000 0.0000 0.0000 
0.0000 0.0000 -0.0000 
0.0000 0.0000 -0.0000 
0.0000 0.0000 0.0000 
0.0000 0.0000 0.0000 
0.0000 0.0000 -0.0000 
0.0000 0.0000 0.0000 
0.0000 0.0000 0.0000 
0.0000 0.0000 0.0000 
0.0000 0.0000 0.0000 
0.0000 0.0000 -0.0000 
0.0000 0.0000 0.0000 
-0.0000 0.0000 -0.0000 
0.0000 0.0000 -0.0000 
-0.0000 0.0000 0.0000 
0.0000 0.0000 -0.0000 
0.0000 -0.0000 0.0000 
0.0000 0.0000 0.0000 
0.0000 0.0000 0.0000 
-0.0000 0.0000 0.0000 
0.0000 0.0000 0.0000 
0.0000 0.0000 0.0000 
0.0000 0.0000 0.0000 
0.0000 -0.0000 0.0000 
0.0000 0.0000 0.0000 
0.0000 0.0000 0.0000 
-0.0000 0.0000 0.0000 
0.0000 0.0000 -0.0000 
-0.0000 0.0000 0.0000 
0.0000 0.0000 0.0000 
0.0000 0.0000 0.0000 
0.0000 0.0000 -0.0000 
-0.0000 0.0000 -0.0000 
0.0000 0.0000 0.0000 
0.0000 0.0000 0.0000 
0.0000 0.0000 0.0000 
0.0000 0.0000 -0.0000 
-0.0000 0.0000 0.0000 
0.0000 0.0000 0.0000 
0.0000 0.0000 0.0000 
0.0000 0.0000 0.0000 
-0.0000 0.0000 0.0000 
0.0000 0.0000 -0.0000 
0.0000 0.0000 0.0000 
0.0000 0.0000 -0.0000 
0.0000 0.0000 0.0000 
0.0000 0.0000 0.0000 
0.0000 0.0000 -0.0000 
0.0000 0.0000 0.0000 
0.0000 0.0000 -0.0000 
0.0000 0.0000 0.0000 
0.0000 -0.0000 -0.0000 
0.0000 0.0000 -0.0000 
0.0000 -0.0000 0.0000 
0.0000 0.0000 0.0000 
0.0000 0.0000 -0.0000 
0.0000 0.0000 0.0000 
0.0000 0.0000 0.0000 
0.0000 0.0000 -0.0000 
0.0000 0.0000 0.0000 
0.0000 0.0000 0.0000 
0.0000 0.0000 -0.0000 
0.0000 0.0000 -0.0000 
-0.0000 0.0000 -0.0000 
0.0000 0.0000 -0.0000 
-0.0000 0.0000 -0.0000 
0.0000 0.0000 -0.0000 
0.0000 -0.0000 0.0000 
0.0000 -0.0000 -0.0000 
0.0000 0.0000 -0.0000 
0.0000 0.0000 0.0000 
0.0000 0.0000 0.0000 
0.0000 0.0000 -0.0000 
0.0000 0.0000 0.0000 
0.0000 0.0000 -0.0000 
-0.0000 0.0000 0.0000 
0.0000 0.0000 0.0000 
0.0000 0.0000 0.0000 
0.0000 0.0000 0.0000 
0.0000 0.0000 0.0000 
0.0000 0.0000 0.0000 
0.0000 0.0000 -0.0000 
0.0000 0.0000 -0.0000 
0.0000 0.0000 0.0000 
0.0000 0.0000 0.0000 
0.0000 0.0000 -0.0000 
0.0000 0.0000 0.0000 
-0.0000 0.0000 -0.0000 
0.0000 0.0000 0.0000 
0.0000 0.0000 0.0000 
0.0000 0.0000 0.0000 
0.0000 0.0000 0.0000 
-0.0000 0.0000 0.0000 
0.0000 0.0000 0.0000 
0.0000 0.0000 0.0000 
0.0000 0.0000 0.0000 
0.0000 0.0000 -0.0000 
0.0000 0.0000 0.0000 
0.0000 0.0000 0.0000 
0.0000 0.0000 0.0000 
0.0000 0.0000 -0.0000 
0.0000 0.0000 0.0000 
0.0000 0.0000 0.0000 
0.0000 0.0000 -0.0000 
0.0000 0.0000 -0.0000 
0.0000 0.0000 0.0000 
0.0000 0.0000 0.0000 
0.0000 0.0000 -0.0000 
-0.0000 -0.0000 -0.0000 
0.0000 0.0000 0.0000 
0.0000 -0.0000 0.0000 
0.0000 0.0000 -0.0000 
0.0000 0.0000 -0.0000 
0.0000 0.0000 0.0000 
0.0000 0.0000 -0.0000 
0.0000 0.0000 0.0000 
0.0000 0.0000 -0.0000 
0.0000 0.0000 -0.0000 
0.0000 0.0000 -0.0000 
0.0000 -0.0000 -0.0000 
-0.0000 0.0000 0.0000 
0.0000 0.0000 0.0000 
0.0000 0.0000 -0.0000 
0.0000 -0.0000 -0.0000 
0.0000 0.0000 0.0000 
0.0000 -0.0000 0.0000 
0.0000 0.0000 0.0000 
0.0000 0.0000 -0.0000 
0.0000 0.0000 -0.0000 
0.0000 0.0000 0.0000 
-0.0000 0.0000 0.0000 
0.0000 0.0000 -0.0000 
0.0000 0.0000 0.0000 
0.0000 0.0000 -0.0000 
0.0000 0.0000 0.0000 
0.0000 0.0000 -0.0000 
0.0000 0.0000 0.0000 
-0.0000 0.0000 0.0000 
0.0000 0.0000 0.0000 
0.0000 0.0000 0.0000 
0.0000 0.0000 0.0000 
0.0000 0.0000 0.0000 
-0.0000 0.0000 0.0000 
-0.0000 0.0000 0.0000 
0.0000 0.0000 0.0000 
0.0000 0.0000 0.0000 
0.0000 0.0000 0.0000 
0.0000 0.0000 0.0000 
0.0000 0.0000 0.0000 
0.0000 0.0000 -0.0000 
0.0000 0.0000 0.0000 
0.0000 0.0000 0.0000 
0.0000 0.0000 0.0000 
0.0000 0.0000 0.0000 
0.0000 0.0000 0.0000 
0.0000 0.0000 0.0000 
0.0000 0.0000 0.0000 
0.0000 0.0000 -0.0000 
0.0000 0.0000 0.0000 
0.0000 0.0000 -0.0000 
0.0000 0.0000 0.0000 
0.0000 0.0000 -0.0000 
-0.0000 -0.0000 -0.0000 
0.0000 0.0000 -0.0000 
0.0000 0.0000 -0.0000 
0.0000 0.0000 -0.0000 
0.0000 0.0000 0.0000 
0.0000 0.0000 -0.0000 
0.0000 0.0000 -0.0000 
0.0000 0.0000 0.0000 
-0.0000 0.0000 -0.0000 
0.0000 0.0000 -0.0000 
0.0000 0.0000 0.0000 
0.0000 0.0000 -0.0000 
0.0000 0.0000 -0.0000 
0.0000 0.0000 0.0000 
0.0000 0.0000 0.0000 
0.0000 0.0000 0.0000 
0.0000 0.0000 -0.0000 
0.0000 0.0000 -0.0000 
0.0000 0.0000 0.0000 
0.0000 0.0000 -0.0000 
0.0000 0.0000 0.0000 
0.0000 0.0000 -0.0000 
0.0000 0.0000 0.0000 
0.0000 0.0000 0.0000 
0.0000 0.0000 -0.0000 
0.0000 0.0000 0.0000 
0.0000 0.0000 0.0000 
0.0000 0.0000 0.0000 
-0.0000 0.0000 -0.0000 
0.0000 0.0000 -0.0000 
0.0000 -0.0000 0.0000 
0.0000 0.0000 0.0000 
0.0000 0.0000 -0.0000 
0.0000 0.0000 -0.0000 
0.0000 0.0000 -0.0000 
0.0000 0.0000 0.0000 
0.0000 0.0000 -0.0000 
-0.0000 0.0000 0.0000 
0.0000 0.0000 0.0000 
0.0000 0.0000 0.0000 
0.0000 -0.0000 0.0000 
0.0000 0.0000 0.0000 
0.0000 0.0000 0.0000 
0.0000 0.0000 0.0000 
0.0000 0.0000 0.0000 
0.0000 0.0000 -0.0000 
0.0000 0.0000 0.0000 
0.0000 0.0000 0.0000 
0.0000 -0.0000 -0.0000 
0.0000 -0.0000 0.0000 
-0.0000 0.0000 -0.0000 
0.0000 0.0000 0.0000 
0.0000 0.0000 -0.0000 
0.0000 0.0000 0.0000 
0.0000 0.0000 -0.0000 
0.0000 0.0000 0.0000 
0.0000 0.0000 -0.0000 
0.0000 0.0000 0.0000 
0.0000 0.0000 0.0000 
0.0000 0.0000 0.0000 
-0.0000 0.0000 0.0000 
0.0000 0.0000 0.0000 
0.0000 0.0000 0.0000 
0.0000 0.0000 -0.0000 
0.0000 0.0000 -0.0000 
0.0000 0.0000 0.0000 
0.0000 0.0000 -0.0000 
0.0000 0.0000 -0.0000 
0.0000 0.0000 0.0000 
0.0000 0.0000 -0.0000 
0.0000 0.0000 0.0000 
0.0000 0.0000 0.0000 
0.0000 0.0000 0.0000 
0.0000 0.0000 -0.0000 
0.0000 0.0000 -0.0000 
-0.0000 0.0000 0.0000 
-0.0000 0.0000 0.0000 
0.0000 0.0000 -0.0000 
0.0000 0.0000 0.0000 
0.0000 0.0000 0.0000 
0.0000 0.0000 0.0000 
0.0000 0.0000 0.0000 
0.0000 0.0000 0.0000 
0.0000 0.0000 -0.0000 
0.0000 0.0000 0.0000 
0.0000 0.0000 -0.0000 
0.0000 0.0000 0.0000 
0.0000 0.0000 -0.0000 
0.0000 0.0000 0.0000 
0.0000 0.0000 0.0000 
0.0000 0.0000 0.0000 
0.0000 -0.0000 0.0000 
0.0000 0.0000 0.0000 
0.0000 0.0000 0.0000 
0.0000 0.0000 -0.0000 
0.0000 0.0000 -0.0000 
-0.0000 0.0000 0.0000 
0.0000 -0.0000 0.0000 
0.0000 0.0000 0.0000 
0.0000 0.0000 -0.0000 
0.0000 -0.0000 -0.0000 
0.0000 -0.0000 -0.0000 
0.0000 0.0000 0.0000 
0.0000 0.0000 0.0000 
0.0000 0.0000 -0.0000 
0.0000 0.0000 0.0000 
0.0000 0.0000 0.0000 
0.0000 0.0000 -0.0000 
0.0000 0.0000 0.0000 
0.0000 0.0000 0.0000 
0.0000 0.0000 0.0000 
0.0000 0.0000 0.0000 
0.0000 0.0000 0.0000 
0.0000 0.0000 -0.0000 
0.0000 0.0000 0.0000 
0.0000 0.0000 0.0000 
0.0000 0.0000 0.0000 
0.0000 0.0000 0.0000 
0.0000 0.0000 -0.0000 
0.0000 0.0000 0.0000 
0.0000 0.0000 0.0000 
0.0000 0.0000 -0.0000 
0.0000 0.0000 0.0000 
0.0000 0.0000 -0.0000 
0.0000 0.0000 0.0000 
-0.0000 -0.0000 0.0000 
0.0000 0.0000 0.0000 
0.0000 0.0000 0.0000 
0.0000 0.0000 0.0000 
0.0000 -0.0000 0.0000 
0.0000 0.0000 0.0000 
0.0000 0.0000 0.0000 
-0.0000 0.0000 -0.0000 
0.0000 0.0000 0.0000 
0.0000 0.0000 0.0000 
0.0000 0.0000 -0.0000 
0.0000 0.0000 -0.0000 
0.0000 0.0000 0.0000 
0.0000 0.0000 0.0000 
0.0000 0.0000 -0.0000 
-0.0000 0.0000 0.0000 
0.0000 0.0000 0.0000 
0.0000 0.0000 -0.0000 
0.0000 0.0000 -0.0000 
0.0000 0.0000 0.0000 
0.0000 0.0000 0.0000 
0.0000 0.0000 -0.0000 
0.0000 0.0000 0.0000 
0.0000 0.0000 0.0000 
0.0000 0.0000 0.0000 
-0.0000 0.0000 -0.0000 
0.0000 0.0000 -0.0000 
0.0000 0.0000 -0.0000 
0.0000 0.0000 -0.0000 
0.0000 0.0000 -0.0000 
0.0000 0.0000 -0.0000 
0.0000 0.0000 0.0000 
-0.0000 0.0000 0.0000 
0.0000 0.0000 -0.0000 
0.0000 0.0000 0.0000 
0.0000 0.0000 -0.0000 
0.0000 0.0000 -0.0000 
0.0000 0.0000 -0.0000 
0.0000 0.0000 -0.0000 
0.0000 0.0000 -0.0000 
0.0000 0.0000 -0.0000 
0.0000 0.0000 0.0000 
0.0000 0.0000 0.0000 
0.0000 -0.0000 0.0000 
0.0000 0.0000 -0.0000 
0.0000 0.0000 0.0000 
0.0000 0.0000 -0.0000 
0.0000 0.0000 0.0000 
0.0000 0.0000 -0.0000 
-0.0000 0.0000 -0.0000 
0.0000 0.0000 -0.0000 
0.0000 0.0000 0.0000 
0.0000 0.0000 0.0000 
0.0000 0.0000 0.0000 
0.0000 0.0000 0.0000 
0.0000 0.0000 0.0000 
0.0000 0.0000 -0.0000 
0.0000 0.0000 0.0000 
0.0000 0.0000 0.0000 
0.0000 0.0000 -0.0000 
0.0000 0.0000 0.0000 
0.0000 -0.0000 0.0000 
0.0000 0.0000 0.0000 
0.0000 0.0000 0.0000 
0.0000 0.0000 0.0000 
0.0000 0.0000 0.0000 
0.0000 0.0000 0.0000 
0.0000 0.0000 0.0000 
0.0000 0.0000 0.0000 
0.0000 0.0000 0.0000 
0.0000 0.0000 -0.0000 
0.0000 0.0000 -0.0000 
0.0000 0.0000 0.0000 
0.0000 0.0000 -0.0000 
-0.0000 0.0000 0.0000 
0.0000 0.0000 0.0000 
0.0000 0.0000 0.0000 
0.0000 0.0000 0.0000 
0.0000 0.0000 0.0000 
0.0000 0.0000 0.0000 
0.0000 0.0000 0.0000 
0.0000 0.0000 0.0000 
0.0000 0.0000 0.0000 
0.0000 0.0000 0.0000 
0.0000 0.0000 0.0000 
0.0000 0.0000 0.0000 
0.0000 0.0000 0.0000 
0.0000 0.0000 0.0000 
0.0000 0.0000 0.0000 
0.0000 0.0000 0.0000 
0.0000 0.0000 0.0000 
0.0000 0.0000 0.0000 
0.0000 0.0000 0.0000 
0.0000 0.0000 0.0000 
0.0000 0.0000 0.0000 
0.0000 0.0000 0.0000 
0.0000 0.0000 0.0000 
0.0000 0.0000 0.0000 
0.0000 0.0000 0.0000 
0.0000 0.0000 0.0000 
0.0000 0.0000 0.0000 
0.0000 0.0000 0.0000 
0.0000 0.0000 0.0000 
0.0000 0.0000 0.0000 
0.0000 0.0000 0.0000 
0.0000 0.0000 0.0000 
0.0000 0.0000 0.0000 
0.0000 0.0000 0.0000 
0.0000 0.0000 0.0000 
0.0000 0.0000 0.0000 
0.0000 0.0000 0.0000 
0.0000 0.0000 0.0000 
0.0000 0.0000 0.0000 
0.0000 0.0000 0.0000 
0.0000 0.0000 0.0000 
0.0000 0.0000 0.0000 
0.0000 0.0000 0.0000 
0.0000 0.0000 0.0000 
0.0000 0.0000 0.0000 
0.0000 0.0000 0.0000 
0.0000 0.0000 0.0000 
0.0000 0.0000 0.0000 
0.0000 0.0000 0.0000 
0.0000 0.0000 0.0000 
0.0000 0.0000 0.0000 
0.0000 0.0000 0.0000 
0.0000 0.0000 0.0000 
0.0000 0.0000 0.0000 
0.0000 0.0000 0.0000 
0.0000 0.0000 0.0000 
0.0000 0.0000 0.0000 
0.0000 0.0000 0.0000 
0.0000 0.0000 0.0000 
0.0000 0.0000 0.0000 
0.0000 0.0000 0.0000 
0.0000 0.0000 0.0000 
0.0000 0.0000 0.0000 
0.0000 0.0000 0.0000 
0.0000 0.0000 0.0000 
0.0000 0.0000 0.0000 
0.0000 0.0000 0.0000 
0.0000 0.0000 0.0000 
0.0000 0.0000 0.0000 
0.0000 0.0000 0.0000 
0.0000 0.0000 0.0000 
0.0000 0.0000 0.0000 
0.0000 0.0000 0.0000 
0.0000 0.0000 0.0000 
0.0000 0.0000 0.0000 
0.0000 0.0000 0.0000 
0.0000 0.0000 0.0000 
0.0000 0.0000 0.0000 
0.0000 0.0000 0.0000 
0.0000 0.0000 0.0000 
0.0000 0.0000 0.0000 
0.0000 0.0000 0.0000 
0.0000 0.0000 0.0000 
0.0000 0.0000 0.0000 
0.0000 0.0000 0.0000 
0.0000 0.0000 0.0000 
0.0000 0.0000 0.0000 
0.0000 0.0000 0.0000 
0.0000 0.0000 0.0000 
0.0000 0.0000 0.0000 
0.0000 0.0000 0.0000 
0.0000 0.0000 0.0000 
0.0000 0.0000 0.0000 
0.0000 0.0000 0.0000 
0.0000 0.0000 0.0000 
0.0000 0.0000 0.0000 
0.0000 0.0000 0.0000 
0.0000 0.0000 0.0000 
0.0000 0.0000 0.0000 
0.0000 0.0000 0.0000 
0.0000 0.0000 0.0000 
0.0000 0.0000 0.0000 
0.0000 0.0000 0.0000 
0.0000 0.0000 0.0000 
0.0000 0.0000 0.0000 
0.0000 0.0000 0.0000 
0.0000 0.0000 0.0000 
0.0000 0.0000 0.0000 
0.0000 0.0000 0.0000 
0.0000 0.0000 0.0000 
0.0000 0.0000 0.0000 
0.0000 0.0000 0.0000 
0.0000 0.0000 0.0000 
0.0000 0.0000 0.0000 
0.0000 0.0000 0.0000 
0.0000 0.0000 0.0000 
0.0000 0.0000 0.0000 
0.0000 0.0000 0.0000 
0.0000 0.0000 0.0000 
0.0000 0.0000 0.0000 
0.0000 0.0000 0.0000 
0.0000 0.0000 0.0000 
0.0000 0.0000 0.0000 
0.0000 0.0000 0.0000 
0.0000 0.0000 0.0000 
0.0000 0.0000 0.0000 
0.0000 0.0000 0.0000 
0.0000 0.0000 0.0000 
0.0000 0.0000 0.0000 
0.0000 0.0000 0.0000 
0.0000 0.0000 0.0000 
0.0000 0.0000 0.0000 
0.0000 0.0000 0.0000 
0.0000 0.0000 0.0000 
0.0000 0.0000 0.0000 
0.0000 0.0000 0.0000 
0.0000 0.0000 0.0000 
0.0000 0.0000 0.0000 
0.0000 0.0000 0.0000 
0.0000 0.0000 0.0000 
0.0000 0.0000 0.0000 
0.0000 0.0000 0.0000 
0.0000 0.0000 0.0000 
0.0000 0.0000 0.0000 
0.0000 0.0000 0.0000 
0.0000 0.0000 0.0000 
0.0000 0.0000 0.0000 
0.0000 0.0000 0.0000 
0.0000 0.0000 0.0000 
0.0000 0.0000 0.0000 
0.0000 0.0000 0.0000 
0.0000 0.0000 0.0000 
0.0000 0.0000 0.0000 
0.0000 0.0000 0.0000 
0.0000 0.0000 0.0000 
0.0000 0.0000 0.0000 
0.0000 0.0000 0.0000 
0.0000 0.0000 0.0000 
0.0000 0.0000 0.0000 
0.0000 0.0000 0.0000 
0.0000 0.0000 0.0000 
0.0000 0.0000 0.0000 
0.0000 0.0000 0.0000 
0.0000 0.0000 0.0000 
0.0000 0.0000 0.0000 
0.0000 0.0000 0.0000 
0.0000 0.0000 0.0000 
0.0000 0.0000 0.0000 
0.0000 0.0000 0.0000 
0.0000 0.0000 0.0000 
0.0000 0.0000 0.0000 
0.0000 0.0000 0.0000 
0.0000 0.0000 0.0000 
0.0000 0.0000 0.0000 
0.0000 0.0000 0.0000 
0.0000 0.0000 0.0000 
0.0000 0.0000 0.0000 
0.0000 0.0000 0.0000 
0.0000 0.0000 0.0000 
0.0000 0.0000 0.0000 
0.0000 0.0000 0.0000 
0.0000 0.0000 0.0000 
0.0000 0.0000 0.0000 
0.0000 0.0000 0.0000 
0.0000 0.0000 0.0000 
0.0000 0.0000 0.0000 
0.0000 0.0000 0.0000 
0.0000 0.0000 0.0000 
0.0000 0.0000 0.0000 
0.0000 0.0000 0.0000 
0.0000 0.0000 0.0000 
0.0000 0.0000 0.0000 
0.0000 0.0000 0.0000 
0.0000 0.0000 0.0000 
0.0000 0.0000 0.0000 
0.0000 0.0000 0.0000 
0.0000 0.0000 0.0000 
0.0000 0.0000 0.0000 
0.0000 0.0000 0.0000 
0.0000 0.0000 0.0000 
0.0000 0.0000 0.0000 
0.0000 0.0000 0.0000 
0.0000 0.0000 0.0000 
0.0000 0.0000 0.0000 
0.0000 0.0000 0.0000 
0.0000 0.0000 0.0000 
0.0000 0.0000 0.0000 
0.0000 0.0000 0.0000 
0.0000 0.0000 0.0000 
0.0000 0.0000 0.0000 
0.0000 0.0000 0.0000 
0.0000 0.0000 0.0000 
0.0000 0.0000 0.0000 
0.0000 0.0000 0.0000 
0.0000 0.0000 0.0000 
0.0000 0.0000 0.0000 
0.0000 0.0000 0.0000 
0.0000 0.0000 0.0000 
0.0000 0.0000 0.0000 
0.0000 0.0000 0.0000 
0.0000 0.0000 0.0000 
0.0000 0.0000 0.0000 
0.0000 0.0000 0.0000 
0.0000 0.0000 0.0000 
0.0000 0.0000 0.0000 
0.0000 0.0000 0.0000 
0.0000 0.0000 0.0000 
0.0000 0.0000 0.0000 
0.0000 0.0000 0.0000 
0.0000 0.0000 0.0000 
0.0000 0.0000 0.0000 
0.0000 0.0000 0.0000 
0.0000 0.0000 0.0000 
0.0000 0.0000 0.0000 
0.0000 0.0000 0.0000 
0.0000 0.0000 0.0000 
0.0000 0.0000 0.0000 
0.0000 0.0000 0.0000 
0.0000 0.0000 0.0000 
0.0000 0.0000 0.0000 
0.0000 0.0000 0.0000 
0.0000 0.0000 0.0000 
0.0000 0.0000 0.0000 
0.0000 0.0000 0.0000 
0.0000 0.0000 0.0000 
0.0000 0.0000 0.0000 
0.0000 0.0000 0.0000 
0.0000 0.0000 0.0000 
0.0000 0.0000 0.0000 
0.0000 0.0000 0.0000 
0.0000 0.0000 0.0000 
0.0000 0.0000 0.0000 
0.0000 0.0000 0.0000 
0.0000 0.0000 0.0000 
0.0000 0.0000 0.0000 
0.0000 0.0000 0.0000 
0.0000 0.0000 0.0000 
0.0000 0.0000 0.0000 
0.0000 0.0000 0.0000 
0.0000 0.0000 0.0000 
0.0000 0.0000 0.0000 
0.0000 0.0000 0.0000 
0.0000 0.0000 0.0000 
0.0000 0.0000 0.0000 
0.0000 0.0000 0.0000 
0.0000 0.0000 0.0000 
0.0000 0.0000 0.0000 
0.0000 0.0000 0.0000 
0.0000 0.0000 0.0000 
0.0000 0.0000 0.0000 
0.0000 0.0000 0.0000 
0.0000 0.0000 0.0000 
0.0000 0.0000 0.0000 
0.0000 0.0000 0.0000 
0.0000 0.0000 0.0000 
0.0000 0.0000 0.0000 
0.0000 0.0000 0.0000 
0.0000 0.0000 0.0000 
0.0000 0.0000 0.0000 
0.0000 0.0000 0.0000 
0.0000 0.0000 0.0000 
0.0000 0.0000 0.0000 
0.0000 0.0000 0.0000 
0.0000 0.0000 0.0000 
0.0000 0.0000 0.0000 
0.0000 0.0000 0.0000 
0.0000 0.0000 0.0000 
0.0000 0.0000 0.0000 
0.0000 0.0000 0.0000 
0.0000 0.0000 0.0000 
0.0000 0.0000 0.0000 
0.0000 0.0000 0.0000 
0.0000 0.0000 0.0000 
0.0000 0.0000 0.0000 
0.0000 0.0000 0.0000 
0.0000 0.0000 0.0000 
0.0000 0.0000 0.0000 
0.0000 0.0000 0.0000 
0.0000 0.0000 0.0000 
0.0000 0.0000 0.0000 
0.0000 0.0000 0.0000 
0.0000 0.0000 0.0000 
0.0000 0.0000 0.0000 
0.0000 0.0000 0.0000 
0.0000 0.0000 0.0000 
0.0000 0.0000 0.0000 
0.0000 0.0000 0.0000 
0.0000 0.0000 0.0000 
0.0000 0.0000 0.0000 
0.0000 0.0000 0.0000 
0.0000 0.0000 0.0000 
0.0000 0.0000 0.0000 
0.0000 0.0000 0.0000 
0.0000 0.0000 0.0000 
0.0000 0.0000 0.0000 
0.0000 0.0000 0.0000 
0.0000 0.0000 0.0000 
0.0000 0.0000 0.0000 
0.0000 0.0000 0.0000 
0.0000 0.0000 0.0000 
0.0000 0.0000 0.0000 
0.0000 0.0000 0.0000 
0.0000 0.0000 0.0000 
0.0000 0.0000 0.0000 
0.0000 0.0000 0.0000 
0.0000 0.0000 0.0000 
0.0000 0.0000 0.0000 
0.0000 0.0000 0.0000 
0.0000 0.0000 0.0000 
0.0000 0.0000 0.0000 
0.0000 0.0000 0.0000 
0.0000 0.0000 0.0000 
0.0000 0.0000 0.0000 
0.0000 0.0000 0.0000 
0.0000 0.0000 0.0000 
0.0000 0.0000 0.0000 
0.0000 0.0000 0.0000 
0.0000 0.0000 0.0000 
0.0000 0.0000 0.0000 
0.0000 0.0000 0.0000 
0.0000 0.0000 0.0000 
0.0000 0.0000 0.0000 
0.0000 0.0000 0.0000 
0.0000 0.0000 0.0000 
0.0000 0.0000 0.0000 
0.0000 0.0000 0.0000 
0.0000 0.0000 0.0000 
0.0000 0.0000 0.0000 
0.0000 0.0000 0.0000 
0.0000 0.0000 0.0000 
0.0000 0.0000 0.0000 
0.0000 0.0000 0.0000 
0.0000 0.0000 0.0000 
0.0000 0.0000 0.0000 
0.0000 0.0000 0.0000 
0.0000 0.0000 0.0000 
0.0000 0.0000 0.0000 
0.0000 0.0000 0.0000 
0.0000 0.0000 0.0000 
0.0000 0.0000 0.0000 
0.0000 0.0000 0.0000 
0.0000 0.0000 0.0000 
0.0000 0.0000 0.0000 
0.0000 0.0000 0.0000 
0.0000 0.0000 0.0000 
0.0000 0.0000 0.0000 
0.0000 0.0000 0.0000 
0.0000 0.0000 0.0000 
0.0000 0.0000 0.0000 
0.0000 0.0000 0.0000 
0.0000 0.0000 0.0000 
0.0000 0.0000 0.0000 
0.0000 0.0000 0.0000 
0.0000 0.0000 0.0000 
0.0000 0.0000 0.0000 
0.0000 0.0000 0.0000 
0.0000 0.0000 0.0000 
0.0000 0.0000 0.0000 
0.0000 0.0000 0.0000 
0.0000 0.0000 0.0000 
0.0000 0.0000 0.0000 
0.0000 0.0000 0.0000 
0.0000 0.0000 0.0000 
0.0000 0.0000 0.0000 
0.0000 0.0000 0.0000 
0.0000 0.0000 0.0000 
0.0000 0.0000 0.0000 
0.0000 0.0000 0.0000 
0.0000 0.0000 0.0000 
0.0000 0.0000 0.0000 
0.0000 0.0000 0.0000 
0.0000 0.0000 0.0000 
0.0000 0.0000 0.0000 
0.0000 0.0000 0.0000 
0.0000 0.0000 0.0000 
0.0000 0.0000 0.0000 
0.0000 0.0000 0.0000 
0.0000 0.0000 0.0000 
0.0000 0.0000 0.0000 
0.0000 0.0000 0.0000 
0.0000 0.0000 0.0000 
0.0000 0.0000 0.0000 
0.0000 0.0000 0.0000 
0.0000 0.0000 0.0000 
0.0000 0.0000 0.0000 
0.0000 0.0000 0.0000 
0.0000 0.0000 0.0000 
0.0000 0.0000 0.0000 
0.0000 0.0000 0.0000 
0.0000 0.0000 0.0000 
0.0000 0.0000 0.0000 
0.0000 0.0000 0.0000 
0.0000 0.0000 0.0000 
0.0000 0.0000 0.0000 
0.0000 0.0000 0.0000 
0.0000 0.0000 0.0000 
0.0000 0.0000 0.0000 
0.0000 0.0000 0.0000 
0.0000 0.0000 0.0000 
0.0000 0.0000 0.0000 
0.0000 0.0000 0.0000 
0.0000 0.0000 0.0000 
0.0000 0.0000 0.0000 
0.0000 0.0000 0.0000 
0.0000 0.0000 0.0000 
0.0000 0.0000 0.0000 
0.0000 0.0000 0.0000 
0.0000 0.0000 0.0000 
0.0000 0.0000 0.0000 
0.0000 0.0000 0.0000 
0.0000 0.0000 0.0000 
0.0000 0.0000 0.0000 
0.0000 0.0000 0.0000 
0.0000 0.0000 0.0000 
0.0000 0.0000 0.0000 
0.0000 0.0000 0.0000 
0.0000 0.0000 0.0000 
0.0000 0.0000 0.0000 
0.0000 0.0000 0.0000 
0.0000 0.0000 0.0000 
0.0000 0.0000 0.0000 
0.0000 0.0000 0.0000 
0.0000 0.0000 0.0000 
0.0000 0.0000 0.0000 
0.0000 0.0000 0.0000 
0.0000 0.0000 0.0000 
0.0000 0.0000 0.0000 
0.0000 0.0000 0.0000 
0.0000 0.0000 0.0000 
0.0000 0.0000 0.0000 
0.0000 0.0000 0.0000 
0.0000 0.0000 0.0000 
0.0000 0.0000 0.0000 
0.0000 0.0000 0.0000 
0.0000 0.0000 0.0000 
0.0000 0.0000 0.0000 
0.0000 0.0000 0.0000 
0.0000 0.0000 0.0000 
0.0000 0.0000 0.0000 
0.0000 0.0000 0.0000 
0.0000 0.0000 0.0000 
0.0000 0.0000 0.0000 
0.0000 0.0000 0.0000 
0.0000 0.0000 0.0000 
0.0000 0.0000 0.0000 
0.0000 0.0000 0.0000 
0.0000 0.0000 0.0000 
0.0000 0.0000 0.0000 
0.0000 0.0000 0.0000 
0.0000 0.0000 0.0000 
0.0000 0.0000 0.0000 
0.0000 0.0000 0.0000 
0.0000 0.0000 0.0000 
0.0000 0.0000 0.0000 
0.0000 0.0000 0.0000 
0.0000 0.0000 0.0000 
0.0000 0.0000 0.0000 
0.0000 0.0000 0.0000 
0.0000 0.0000 0.0000 
0.0000 0.0000 0.0000 
0.0000 0.0000 0.0000 
0.0000 0.0000 0.0000 
0.0000 0.0000 0.0000 
0.0000 0.0000 0.0000 
0.0000 0.0000 0.0000 
0.0000 0.0000 0.0000 
0.0000 0.0000 0.0000 
0.0000 0.0000 0.0000 
0.0000 0.0000 0.0000 
0.0000 0.0000 0.0000 
0.0000 0.0000 0.0000 
0.0000 0.0000 0.0000 
0.0000 0.0000 0.0000 
0.0000 0.0000 0.0000 
0.0000 0.0000 0.0000 
0.0000 0.0000 0.0000 
0.0000 0.0000 0.0000 
0.0000 0.0000 0.0000 
0.0000 0.0000 0.0000 
0.0000 0.0000 0.0000 
0.0000 0.0000 0.0000 
0.0000 0.0000 0.0000 
0.0000 0.0000 0.0000 
0.0000 0.0000 0.0000 
0.0000 0.0000 0.0000 
0.0000 0.0000 0.0000 
0.0000 0.0000 0.0000 
0.0000 0.0000 0.0000 
0.0000 0.0000 0.0000 
0.0000 0.0000 0.0000 
0.0000 0.0000 0.0000 
0.0000 0.0000 0.0000 
0.0000 0.0000 0.0000 
0.0000 0.0000 0.0000 
0.0000 0.0000 0.0000 
0.0000 0.0000 0.0000 
0.0000 0.0000 0.0000 
0.0000 0.0000 0.0000 
0.0000 0.0000 0.0000 
0.0000 0.0000 0.0000 
0.0000 0.0000 0.0000 
0.0000 0.0000 0.0000 
0.0000 0.0000 0.0000 
0.0000 0.0000 0.0000 
0.0000 0.0000 0.0000 
0.0000 0.0000 0.0000 
0.0000 0.0000 0.0000 
0.0000 0.0000 0.0000 
0.0000 0.0000 0.0000 
0.0000 0.0000 0.0000 
0.0000 0.0000 0.0000 
0.0000 0.0000 0.0000 
0.0000 0.0000 0.0000 
0.0000 0.0000 0.0000 
0.0000 0.0000 0.0000 
0.0000 0.0000 0.0000 
0.0000 0.0000 0.0000 
0.0000 0.0000 0.0000 
0.0000 0.0000 0.0000 
0.0000 0.0000 0.0000 
0.0000 0.0000 0.0000 
0.0000 0.0000 0.0000 
0.0000 0.0000 0.0000 
0.0000 0.0000 0.0000 
0.0000 0.0000 0.0000 
0.0000 0.0000 0.0000 
0.0000 0.0000 0.0000 
0.0000 0.0000 0.0000 
0.0000 0.0000 0.0000 
0.0000 0.0000 0.0000 
0.0000 0.0000 0.0000 
0.0000 0.0000 0.0000 
0.0000 0.0000 0.0000 
0.0000 0.0000 0.0000 
0.0000 0.0000 0.0000 
0.0000 0.0000 0.0000 
0.0000 0.0000 0.0000 
0.0000 0.0000 0.0000 
0.0000 0.0000 0.0000 
0.0000 0.0000 0.0000 
0.0000 0.0000 0.0000 
0.0000 0.0000 0.0000 
0.0000 0.0000 0.0000 
0.0000 0.0000 0.0000 
0.0000 0.0000 0.0000 
0.0000 0.0000 0.0000 
0.0000 0.0000 0.0000 
0.0000 0.0000 0.0000 
0.0000 0.0000 0.0000 
0.0000 0.0000 0.0000 
0.0000 0.0000 0.0000 
0.0000 0.0000 0.0000 
0.0000 0.0000 0.0000 
0.0000 0.0000 0.0000 
0.0000 0.0000 0.0000 
0.0000 0.0000 0.0000 
0.0000 0.0000 0.0000 
0.0000 0.0000 0.0000 
0.0000 0.0000 0.0000 
0.0000 0.0000 0.0000 
0.0000 0.0000 0.0000 
0.0000 0.0000 0.0000 
0.0000 0.0000 0.0000 
0.0000 0.0000 0.0000 
0.0000 0.0000 0.0000 
0.0000 0.0000 0.0000 
0.0000 0.0000 0.0000 
0.0000 0.0000 0.0000 
0.0000 0.0000 0.0000 
0.0000 0.0000 0.0000 
0.0000 0.0000 0.0000 
0.0000 0.0000 0.0000 
0.0000 0.0000 0.0000 
0.0000 0.0000 0.0000 
0.0000 0.0000 0.0000 
0.0000 0.0000 0.0000 
0.0000 0.0000 0.0000 
0.0000 0.0000 0.0000 
0.0000 0.0000 0.0000 
0.0000 0.0000 0.0000 
0.0000 0.0000 0.0000 
0.0000 0.0000 0.0000 
0.0000 0.0000 0.0000 
0.0000 0.0000 0.0000 
0.0000 0.0000 0.0000 
0.0000 0.0000 0.0000 
0.0000 0.0000 0.0000 
0.0000 0.0000 0.0000 
0.0000 0.0000 0.0000 
0.0000 0.0000 0.0000 
0.0000 0.0000 0.0000 
0.0000 0.0000 0.0000 
0.0000 0.0000 0.0000 
0.0000 0.0000 0.0000 
0.0000 0.0000 0.0000 
0.0000 0.0000 0.0000 
0.0000 0.0000 0.0000 
0.0000 0.0000 0.0000 
0.0000 0.0000 0.0000 
0.0000 0.0000 0.0000 
0.0000 0.0000 0.0000 
0.0000 0.0000 0.0000 
0.0000 0.0000 0.0000 
0.0000 0.0000 0.0000 
0.0000 0.0000 0.0000 
0.0000 0.0000 0.0000 
VECTORS Loads float
0.0000 0.0000 0.0000 
0.0000 0.0000 0.0000 
0.0000 0.0000 0.0000 
0.0000 0.0000 0.0000 
0.0000 0.0000 0.0000 
0.0000 0.0000 0.0000 
0.0000 0.0000 0.0000 
0.0000 0.0000 0.0000 
0.0000 0.0000 0.0000 
0.0000 0.0000 0.0000 
0.0000 0.0000 0.0000 
0.0000 0.0000 0.0000 
0.0000 0.0000 0.0000 
0.0000 0.0000 0.0000 
0.0000 0.0000 0.0000 
0.0000 0.0000 0.0000 
0.0000 0.0000 0.0000 
0.0000 0.0000 0.0000 
0.0000 0.0000 0.0000 
0.0000 0.0000 0.0000 
0.0000 0.0000 0.0000 
0.0000 0.0000 0.0000 
0.0000 0.0000 0.0000 
0.0000 0.0000 0.0000 
0.0000 0.0000 0.0000 
0.0000 0.0000 0.0000 
0.0000 0.0000 0.0000 
0.0000 0.0000 0.0000 
0.0000 0.0000 0.0000 
0.0000 0.0000 0.0000 
0.0000 0.0000 0.0000 
0.0000 0.0000 0.0000 
0.0000 0.0000 0.0000 
0.0000 0.0000 0.0000 
0.0000 0.0000 0.0000 
0.0000 0.0000 0.0000 
0.0000 0.0000 0.0000 
0.0000 0.0000 0.0000 
0.0000 0.0000 0.0000 
0.0000 0.0000 0.0000 
0.0000 0.0000 0.0000 
0.0000 0.0000 0.0000 
0.0000 0.0000 0.0000 
0.0000 0.0000 0.0000 
0.0000 0.0000 0.0000 
0.0000 0.0000 0.0000 
0.0000 0.0000 0.0000 
0.0000 0.0000 0.0000 
0.0000 0.0000 0.0000 
0.0000 0.0000 0.0000 
0.0000 0.0000 0.0000 
0.0000 0.0000 0.0000 
0.0000 0.0000 0.0000 
0.0000 0.0000 0.0000 
0.0000 0.0000 0.0000 
0.0000 0.0000 0.0000 
0.0000 0.0000 0.0000 
0.0000 0.0000 0.0000 
0.0000 0.0000 0.0000 
0.0000 0.0000 0.0000 
0.0000 0.0000 0.0000 
0.0000 0.0000 0.0000 
0.0000 0.0000 0.0000 
0.0000 0.0000 0.0000 
0.0000 0.0000 0.0000 
0.0000 0.0000 0.0000 
0.0000 0.0000 0.0000 
0.0000 0.0000 0.0000 
0.0000 0.0000 0.0000 
0.0000 0.0000 0.0000 
0.0000 0.0000 0.0000 
0.0000 0.0000 0.0000 
0.0000 0.0000 0.0000 
0.0000 0.0000 0.0000 
0.0000 0.0000 0.0000 
0.0000 0.0000 0.0000 
0.0000 0.0000 0.0000 
0.0000 0.0000 0.0000 
0.0000 0.0000 0.0000 
0.0000 0.0000 0.0000 
0.0000 0.0000 0.0000 
0.0000 0.0000 0.0000 
0.0000 0.0000 0.0000 
0.0000 0.0000 0.0000 
0.0000 0.0000 0.0000 
0.0000 0.0000 0.0000 
0.0000 0.0000 0.0000 
0.0000 0.0000 0.0000 
0.0000 0.0000 0.0000 
0.0000 0.0000 0.0000 
0.0000 0.0000 0.0000 
0.0000 0.0000 0.0000 
0.0000 0.0000 0.0000 
0.0000 0.0000 0.0000 
0.0000 0.0000 0.0000 
0.0000 0.0000 0.0000 
0.0000 0.0000 0.0000 
0.0000 0.0000 0.0000 
0.0000 0.0000 0.0000 
0.0000 0.0000 0.0000 
0.0000 0.0000 0.0000 
0.0000 0.0000 0.0000 
0.0000 0.0000 0.0000 
0.0000 0.0000 0.0000 
0.0000 0.0000 0.0000 
0.0000 0.0000 0.0000 
0.0000 0.0000 0.0000 
0.0000 0.0000 0.0000 
0.0000 0.0000 0.0000 
0.0000 0.0000 0.0000 
0.0000 0.0000 0.0000 
0.0000 0.0000 0.0000 
0.0000 0.0000 0.0000 
0.0000 0.0000 0.0000 
0.0000 0.0000 0.0000 
0.0000 0.0000 0.0000 
0.0000 0.0000 0.0000 
0.0000 0.0000 0.0000 
0.0000 0.0000 0.0000 
0.0000 0.0000 0.0000 
0.0000 0.0000 0.0000 
0.0000 0.0000 0.0000 
0.0000 0.0000 0.0000 
0.0000 0.0000 0.0000 
0.0000 0.0000 0.0000 
0.0000 0.0000 0.0000 
0.0000 0.0000 0.0000 
0.0000 0.0000 0.0000 
0.0000 0.0000 0.0000 
0.0000 0.0000 0.0000 
0.0000 0.0000 0.0000 
0.0000 0.0000 0.0000 
0.0000 0.0000 0.0000 
0.0000 0.0000 0.0000 
0.0000 0.0000 0.0000 
0.0000 0.0000 0.0000 
0.0000 0.0000 0.0000 
0.0000 0.0000 0.0000 
0.0000 0.0000 0.0000 
0.0000 0.0000 0.0000 
0.0000 0.0000 0.0000 
0.0000 0.0000 0.0000 
0.0000 0.0000 0.0000 
0.0000 0.0000 0.0000 
0.0000 0.0000 0.0000 
0.0000 0.0000 0.0000 
0.0000 0.0000 0.0000 
0.0000 0.0000 0.0000 
0.0000 0.0000 0.0000 
0.0000 0.0000 0.0000 
0.0000 0.0000 0.0000 
0.0000 0.0000 0.0000 
0.0000 0.0000 0.0000 
0.0000 0.0000 0.0000 
0.0000 0.0000 0.0000 
0.0000 0.0000 0.0000 
0.0000 0.0000 0.0000 
0.0000 0.0000 0.0000 
0.0000 0.0000 0.0000 
0.0000 0.0000 0.0000 
0.0000 0.0000 0.0000 
0.0000 0.0000 0.0000 
0.0000 0.0000 0.0000 
0.0000 0.0000 0.0000 
0.0000 0.0000 0.0000 
0.0000 0.0000 0.0000 
0.0000 0.0000 0.0000 
0.0000 0.0000 0.0000 
0.0000 0.0000 0.0000 
0.0000 0.0000 0.0000 
0.0000 0.0000 0.0000 
0.0000 0.0000 0.0000 
0.0000 0.0000 0.0000 
0.0000 0.0000 0.0000 
0.0000 0.0000 0.0000 
0.0000 0.0000 0.0000 
0.0000 0.0000 0.0000 
0.0000 0.0000 0.0000 
0.0000 0.0000 0.0000 
0.0000 0.0000 0.0000 
0.0000 0.0000 0.0000 
0.0000 0.0000 0.0000 
0.0000 0.0000 0.0000 
0.0000 0.0000 0.0000 
0.0000 0.0000 0.0000 
0.0000 0.0000 0.0000 
0.0000 0.0000 0.0000 
0.0000 0.0000 0.0000 
0.0000 0.0000 0.0000 
0.0000 0.0000 0.0000 
0.0000 0.0000 0.0000 
0.0000 0.0000 0.0000 
0.0000 0.0000 0.0000 
0.0000 0.0000 0.0000 
0.0000 0.0000 0.0000 
0.0000 0.0000 0.0000 
0.0000 0.0000 0.0000 
0.0000 0.0000 0.0000 
0.0000 0.0000 0.0000 
0.0000 0.0000 0.0000 
0.0000 0.0000 0.0000 
0.0000 0.0000 0.0000 
0.0000 0.0000 0.0000 
0.0000 0.0000 0.0000 
0.0000 0.0000 0.0000 
0.0000 0.0000 0.0000 
0.0000 0.0000 0.0000 
0.0000 0.0000 0.0000 
0.0000 0.0000 0.0000 
0.0000 0.0000 0.0000 
0.0000 0.0000 0.0000 
0.0000 0.0000 0.0000 
0.0000 0.0000 0.0000 
0.0000 0.0000 0.0000 
0.0000 0.0000 0.0000 
0.0000 0.0000 0.0000 
0.0000 0.0000 0.0000 
0.0000 0.0000 0.0000 
0.0000 0.0000 0.0000 
0.0000 0.0000 0.0000 
0.0000 0.0000 0.0000 
0.0000 0.0000 0.0000 
0.0000 0.0000 0.0000 
0.0000 0.0000 0.0000 
0.0000 0.0000 0.0000 
0.0000 0.0000 0.0000 
0.0000 0.0000 0.0000 
0.0000 0.0000 0.0000 
0.0000 0.0000 0.0000 
0.0000 0.0000 0.0000 
0.0000 0.0000 0.0000 
0.0000 0.0000 0.0000 
0.0000 0.0000 0.0000 
0.0000 0.0000 0.0000 
0.0000 0.0000 0.0000 
0.0000 0.0000 0.0000 
0.0000 0.0000 0.0000 
0.0000 0.0000 0.0000 
0.0000 0.0000 0.0000 
0.0000 0.0000 0.0000 
0.0000 0.0000 0.0000 
0.0000 0.0000 0.0000 
0.0000 0.0000 0.0000 
0.0000 0.0000 0.0000 
0.0000 0.0000 0.0000 
0.0000 0.0000 0.0000 
0.0000 0.0000 0.0000 
0.0000 0.0000 0.0000 
0.0000 0.0000 0.0000 
0.0000 0.0000 0.0000 
0.0000 0.0000 0.0000 
0.0000 0.0000 0.0000 
0.0000 0.0000 0.0000 
0.0000 0.0000 0.0000 
0.0000 0.0000 0.0000 
0.0000 0.0000 0.0000 
0.0000 0.0000 0.0000 
0.0000 0.0000 0.0000 
0.0000 0.0000 0.0000 
0.0000 0.0000 0.0000 
0.0000 0.0000 0.0000 
0.0000 0.0000 0.0000 
0.0000 0.0000 0.0000 
0.0000 0.0000 0.0000 
0.0000 0.0000 0.0000 
0.0000 0.0000 0.0000 
0.0000 0.0000 0.0000 
0.0000 0.0000 0.0000 
0.0000 0.0000 0.0000 
0.0000 0.0000 0.0000 
0.0000 0.0000 0.0000 
0.0000 0.0000 0.0000 
0.0000 0.0000 0.0000 
0.0000 0.0000 0.0000 
0.0000 0.0000 0.0000 
0.0000 0.0000 0.0000 
0.0000 0.0000 0.0000 
0.0000 0.0000 0.0000 
0.0000 0.0000 0.0000 
0.0000 0.0000 0.0000 
0.0000 0.0000 0.0000 
0.0000 0.0000 0.0000 
0.0000 0.0000 0.0000 
0.0000 0.0000 0.0000 
0.0000 0.0000 0.0000 
0.0000 0.0000 0.0000 
0.0000 0.0000 0.0000 
0.0000 0.0000 0.0000 
0.0000 0.0000 0.0000 
0.0000 0.0000 0.0000 
0.0000 0.0000 0.0000 
0.0000 0.0000 0.0000 
0.0000 0.0000 0.0000 
0.0000 0.0000 0.0000 
0.0000 0.0000 0.0000 
0.0000 0.0000 0.0000 
0.0000 0.0000 0.0000 
0.0000 0.0000 0.0000 
0.0000 0.0000 0.0000 
0.0000 0.0000 0.0000 
0.0000 0.0000 0.0000 
0.0000 0.0000 0.0000 
0.0000 0.0000 0.0000 
0.0000 0.0000 0.0000 
0.0000 0.0000 0.0000 
0.0000 0.0000 0.0000 
0.0000 0.0000 0.0000 
0.0000 0.0000 0.0000 
0.0000 0.0000 0.0000 
0.0000 0.0000 0.0000 
0.0000 0.0000 0.0000 
0.0000 0.0000 0.0000 
0.0000 0.0000 0.0000 
0.0000 0.0000 0.0000 
0.0000 0.0000 0.0000 
0.0000 0.0000 0.0000 
0.0000 0.0000 0.0000 
0.0000 0.0000 0.0000 
0.0000 0.0000 0.0000 
0.0000 0.0000 0.0000 
0.0000 0.0000 0.0000 
0.0000 0.0000 0.0000 
0.0000 0.0000 0.0000 
0.0000 0.0000 0.0000 
0.0000 0.0000 0.0000 
0.0000 0.0000 0.0000 
0.0000 0.0000 0.0000 
0.0000 0.0000 0.0000 
0.0000 0.0000 0.0000 
0.0000 0.0000 0.0000 
0.0000 0.0000 0.0000 
0.0000 0.0000 0.0000 
0.0000 0.0000 0.0000 
0.0000 0.0000 0.0000 
0.0000 0.0000 0.0000 
0.0000 0.0000 0.0000 
0.0000 0.0000 0.0000 
0.0000 0.0000 0.0000 
0.0000 0.0000 0.0000 
0.0000 0.0000 0.0000 
0.0000 0.0000 0.0000 
0.0000 0.0000 0.0000 
0.0000 0.0000 0.0000 
0.0000 0.0000 0.0000 
0.0000 0.0000 0.0000 
0.0000 0.0000 0.0000 
0.0000 0.0000 0.0000 
0.0000 0.0000 0.0000 
0.0000 0.0000 0.0000 
0.0000 0.0000 0.0000 
0.0000 0.0000 0.0000 
0.0000 0.0000 0.0000 
0.0000 0.0000 0.0000 
0.0000 0.0000 0.0000 
0.0000 0.0000 0.0000 
0.0000 0.0000 0.0000 
0.0000 0.0000 0.0000 
0.0000 0.0000 0.0000 
0.0000 0.0000 0.0000 
0.0000 0.0000 0.0000 
0.0000 0.0000 0.0000 
0.0000 0.0000 0.0000 
0.0000 0.0000 0.0000 
0.0000 0.0000 0.0000 
0.0000 0.0000 0.0000 
0.0000 0.0000 0.0000 
0.0000 0.0000 0.0000 
0.0000 0.0000 0.0000 
0.0000 0.0000 0.0000 
0.0000 0.0000 0.0000 
0.0000 0.0000 0.0000 
0.0000 0.0000 0.0000 
0.0000 0.0000 0.0000 
0.0000 0.0000 0.0000 
0.0000 0.0000 0.0000 
0.0000 0.0000 0.0000 
0.0000 0.0000 0.0000 
0.0000 0.0000 0.0000 
0.0000 0.0000 0.0000 
0.0000 0.0000 0.0000 
0.0000 0.0000 0.0000 
0.0000 0.0000 0.0000 
0.0000 0.0000 0.0000 
0.0000 0.0000 0.0000 
0.0000 0.0000 0.0000 
0.0000 0.0000 0.0000 
0.0000 0.0000 0.0000 
0.0000 0.0000 0.0000 
0.0000 0.0000 0.0000 
0.0000 0.0000 0.0000 
0.0000 0.0000 0.0000 
0.0000 0.0000 0.0000 
0.0000 0.0000 0.0000 
0.0000 0.0000 0.0000 
0.0000 0.0000 0.0000 
0.0000 0.0000 0.0000 
0.0000 0.0000 0.0000 
0.0000 0.0000 0.0000 
0.0000 0.0000 0.0000 
0.0000 0.0000 0.0000 
0.0000 0.0000 0.0000 
0.0000 0.0000 0.0000 
0.0000 0.0000 0.0000 
0.0000 0.0000 0.0000 
0.0000 0.0000 0.0000 
0.0000 0.0000 0.0000 
0.0000 0.0000 0.0000 
0.0000 0.0000 0.0000 
0.0000 0.0000 0.0000 
0.0000 0.0000 0.0000 
0.0000 0.0000 0.0000 
0.0000 0.0000 0.0000 
0.0000 0.0000 0.0000 
0.0000 0.0000 0.0000 
0.0000 0.0000 0.0000 
0.0000 0.0000 0.0000 
0.0000 0.0000 0.0000 
0.0000 0.0000 0.0000 
0.0000 0.0000 0.0000 
0.0000 0.0000 0.0000 
0.0000 0.0000 0.0000 
0.0000 0.0000 0.0000 
0.0000 0.0000 0.0000 
0.0000 0.0000 0.0000 
0.0000 0.0000 0.0000 
0.0000 0.0000 0.0000 
0.0000 0.0000 0.0000 
0.0000 0.0000 0.0000 
0.0000 0.0000 0.0000 
0.0000 0.0000 0.0000 
0.0000 0.0000 0.0000 
0.0000 0.0000 0.0000 
0.0000 0.0000 0.0000 
0.0000 0.0000 0.0000 
0.0000 0.0000 0.0000 
0.0000 0.0000 0.0000 
0.0000 0.0000 0.0000 
0.0000 0.0000 0.0000 
0.0000 0.0000 0.0000 
0.0000 0.0000 0.0000 
0.0000 0.0000 0.0000 
0.0000 0.0000 0.0000 
0.0000 0.0000 0.0000 
0.0000 0.0000 0.0000 
0.0000 0.0000 0.0000 
0.0000 0.0000 0.0000 
0.0000 0.0000 0.0000 
0.0000 0.0000 0.0000 
0.0000 0.0000 0.0000 
0.0000 0.0000 0.0000 
0.0000 0.0000 0.0000 
0.0000 0.0000 0.0000 
0.0000 0.0000 0.0000 
0.0000 0.0000 0.0000 
0.0000 0.0000 0.0000 
0.0000 0.0000 0.0000 
0.0000 0.0000 0.0000 
0.0000 0.0000 0.0000 
0.0000 0.0000 0.0000 
0.0000 0.0000 0.0000 
0.0000 0.0000 0.0000 
0.0000 0.0000 0.0000 
0.0000 0.0000 0.0000 
0.0000 0.0000 0.0000 
0.0000 0.0000 0.0000 
0.0000 0.0000 0.0000 
0.0000 0.0000 0.0000 
0.0000 0.0000 0.0000 
0.0000 0.0000 0.0000 
0.0000 0.0000 0.0000 
0.0000 0.0000 0.0000 
0.0000 0.0000 0.0000 
0.0000 0.0000 0.0000 
0.0000 0.0000 0.0000 
0.0000 0.0000 0.0000 
0.0000 0.0000 0.0000 
0.0000 0.0000 0.0000 
0.0000 0.0000 0.0000 
0.0000 0.0000 0.0000 
0.0000 0.0000 0.0000 
0.0000 0.0000 0.0000 
0.0000 0.0000 0.0000 
0.0000 0.0000 0.0000 
0.0000 0.0000 0.0000 
0.0000 0.0000 0.0000 
0.0000 0.0000 0.0000 
0.0000 0.0000 0.0000 
0.0000 0.0000 0.0000 
0.0000 0.0000 0.0000 
0.0000 0.0000 0.0000 
0.0000 0.0000 0.0000 
0.0000 0.0000 0.0000 
0.0000 0.0000 0.0000 
0.0000 0.0000 0.0000 
0.0000 0.0000 0.0000 
0.0000 0.0000 0.0000 
0.0000 0.0000 0.0000 
0.0000 0.0000 0.0000 
0.0000 0.0000 0.0000 
0.0000 0.0000 0.0000 
0.0000 0.0000 0.0000 
0.0000 0.0000 0.0000 
0.0000 0.0000 0.0000 
0.0000 0.0000 0.0000 
0.0000 0.0000 0.0000 
0.0000 0.0000 0.0000 
0.0000 0.0000 0.0000 
0.0000 0.0000 0.0000 
0.0000 0.0000 0.0000 
0.0000 0.0000 0.0000 
0.0000 0.0000 0.0000 
0.0000 0.0000 0.0000 
0.0000 0.0000 0.0000 
0.0000 0.0000 0.0000 
0.0000 0.0000 0.0000 
0.0000 0.0000 0.0000 
0.0000 0.0000 0.0000 
0.0000 0.0000 0.0000 
0.0000 0.0000 0.0000 
0.0000 0.0000 0.0000 
0.0000 0.0000 0.0000 
0.0000 0.0000 0.0000 
0.0000 0.0000 0.0000 
0.0000 0.0000 0.0000 
0.0000 0.0000 0.0000 
0.0000 0.0000 0.0000 
0.0000 0.0000 0.0000 
0.0000 0.0000 0.0000 
0.0000 0.0000 0.0000 
0.0000 0.0000 0.0000 
0.0000 0.0000 0.0000 
0.0000 0.0000 0.0000 
0.0000 0.0000 0.0000 
0.0000 0.0000 0.0000 
0.0000 0.0000 0.0000 
0.0000 0.0000 0.0000 
0.0000 0.0000 0.0000 
0.0000 0.0000 0.0000 
0.0000 0.0000 0.0000 
0.0000 0.0000 0.0000 
0.0000 0.0000 0.0000 
0.0000 0.0000 0.0000 
0.0000 0.0000 0.0000 
0.0000 0.0000 0.0000 
0.0000 0.0000 0.0000 
0.0000 0.0000 0.0000 
0.0000 0.0000 0.0000 
0.0000 0.0000 0.0000 
0.0000 0.0000 0.0000 
0.0000 0.0000 0.0000 
0.0000 0.0000 0.0000 
0.0000 0.0000 0.0000 
0.0000 0.0000 0.0000 
0.0000 0.0000 0.0000 
0.0000 0.0000 0.0000 
0.0000 0.0000 0.0000 
0.0000 0.0000 0.0000 
0.0000 0.0000 0.0000 
0.0000 0.0000 0.0000 
0.0000 0.0000 0.0000 
0.0000 0.0000 0.0000 
0.0000 0.0000 0.0000 
0.0000 0.0000 0.0000 
0.0000 0.0000 0.0000 
0.0000 0.0000 0.0000 
0.0000 0.0000 0.0000 
0.0000 0.0000 0.0000 
0.0000 0.0000 0.0000 
0.0000 0.0000 0.0000 
0.0000 0.0000 0.0000 
0.0000 0.0000 0.0000 
0.0000 0.0000 0.0000 
0.0000 0.0000 0.0000 
0.0000 0.0000 0.0000 
0.0000 0.0000 0.0000 
0.0000 0.0000 0.0000 
0.0000 0.0000 0.0000 
0.0000 0.0000 0.0000 
0.0000 0.0000 0.0000 
0.0000 0.0000 0.0000 
0.0000 0.0000 0.0000 
0.0000 0.0000 0.0000 
0.0000 0.0000 0.0000 
0.0000 0.0000 0.0000 
0.0000 0.0000 0.0000 
0.0000 0.0000 0.0000 
0.0000 0.0000 0.0000 
0.0000 0.0000 0.0000 
0.0000 0.0000 0.0000 
0.0000 0.0000 0.0000 
0.0000 0.0000 0.0000 
0.0000 0.0000 0.0000 
0.0000 0.0000 0.0000 
0.0000 0.0000 0.0000 
0.0000 0.0000 0.0000 
0.0000 0.0000 0.0000 
0.0000 0.0000 0.0000 
0.0000 0.0000 0.0000 
0.0000 0.0000 0.0000 
0.0000 0.0000 0.0000 
0.0000 0.0000 0.0000 
0.0000 0.0000 0.0000 
0.0000 0.0000 0.0000 
0.0000 0.0000 0.0000 
0.0000 0.0000 0.0000 
0.0000 0.0000 0.0000 
0.0000 0.0000 0.0000 
0.0000 0.0000 0.0000 
0.0000 0.0000 0.0000 
0.0000 0.0000 0.0000 
0.0000 0.0000 0.0000 
0.0000 0.0000 0.0000 
0.0000 0.0000 0.0000 
0.0000 0.0000 0.0000 
0.0000 0.0000 0.0000 
0.0000 0.0000 0.0000 
0.0000 0.0000 0.0000 
0.0000 0.0000 0.0000 
0.0000 0.0000 0.0000 
0.0000 0.0000 0.0000 
0.0000 0.0000 0.0000 
0.0000 0.0000 0.0000 
0.0000 0.0000 0.0000 
0.0000 0.0000 0.0000 
0.0000 0.0000 0.0000 
0.0000 0.0000 0.0000 
0.0000 0.0000 0.0000 
0.0000 0.0000 0.0000 
0.0000 0.0000 0.0000 
0.0000 0.0000 0.0000 
0.0000 0.0000 0.0000 
0.0000 0.0000 0.0000 
0.0000 0.0000 0.0000 
0.0000 0.0000 0.0000 
0.0000 0.0000 0.0000 
0.0000 0.0000 0.0000 
0.0000 0.0000 0.0000 
0.0000 0.0000 0.0000 
0.0000 0.0000 0.0000 
0.0000 0.0000 0.0000 
0.0000 0.0000 0.0000 
0.0000 0.0000 0.0000 
0.0000 0.0000 0.0000 
0.0000 0.0000 0.0000 
0.0000 0.0000 0.0000 
0.0000 0.0000 0.0000 
0.0000 0.0000 0.0000 
0.0000 0.0000 0.0000 
0.0000 0.0000 0.0000 
0.0000 0.0000 0.0000 
0.0000 0.0000 0.0000 
0.0000 0.0000 0.0000 
0.0000 0.0000 0.0000 
0.0000 0.0000 0.0000 
0.0000 0.0000 0.0000 
0.0000 0.0000 0.0000 
0.0000 0.0000 0.0000 
0.0000 0.0000 0.0000 
0.0000 0.0000 0.0000 
0.0000 0.0000 0.0000 
0.0000 0.0000 0.0000 
0.0000 0.0000 0.0000 
0.0000 0.0000 0.0000 
0.0000 0.0000 0.0000 
0.0000 0.0000 0.0000 
0.0000 0.0000 0.0000 
0.0000 0.0000 0.0000 
0.0000 0.0000 0.0000 
0.0000 0.0000 0.0000 
0.0000 0.0000 0.0000 
0.0000 0.0000 0.0000 
0.0000 0.0000 0.0000 
0.0000 0.0000 0.0000 
0.0000 0.0000 0.0000 
0.0000 0.0000 0.0000 
0.0000 0.0000 0.0000 
0.0000 0.0000 0.0000 
0.0000 0.0000 0.0000 
0.0000 0.0000 0.0000 
0.0000 0.0000 0.0000 
0.0000 0.0000 0.0000 
0.0000 0.0000 0.0000 
0.0000 0.0000 0.0000 
0.0000 0.0000 0.0000 
0.0000 0.0000 0.0000 
0.0000 0.0000 0.0000 
0.0000 0.0000 0.0000 
0.0000 0.0000 0.0000 
0.0000 0.0000 0.0000 
0.0000 0.0000 0.0000 
0.0000 0.0000 0.0000 
0.0000 0.0000 0.0000 
0.0000 0.0000 0.0000 
0.0000 0.0000 0.0000 
0.0000 0.0000 0.0000 
0.0000 0.0000 0.0000 
0.0000 0.0000 0.0000 
0.0000 0.0000 0.0000 
0.0000 0.0000 0.0000 
0.0000 0.0000 0.0000 
0.0000 0.0000 0.0000 
0.0000 0.0000 0.0000 
0.0000 0.0000 0.0000 
0.0000 0.0000 0.0000 
0.0000 0.0000 0.0000 
0.0000 0.0000 0.0000 
0.0000 0.0000 0.0000 
0.0000 0.0000 0.0000 
0.0000 0.0000 0.0000 
0.0000 0.0000 0.0000 
0.0000 0.0000 0.0000 
0.0000 0.0000 0.0000 
0.0000 0.0000 0.0000 
0.0000 0.0000 0.0000 
0.0000 0.0000 0.0000 
0.0000 0.0000 0.0000 
0.0000 0.0000 0.0000 
0.0000 0.0000 0.0000 
0.0000 0.0000 0.0000 
0.0000 0.0000 0.0000 
0.0000 0.0000 0.0000 
0.0000 0.0000 0.0000 
0.0000 0.0000 0.0000 
0.0000 0.0000 0.0000 
0.0000 0.0000 0.0000 
0.0000 0.0000 0.0000 
0.0000 0.0000 0.0000 
0.0000 0.0000 0.0000 
0.0000 0.0000 0.0000 
0.0000 0.0000 0.0000 
0.0000 0.0000 0.0000 
0.0000 0.0000 0.0000 
0.0000 0.0000 0.0000 
0.0000 0.0000 0.0000 
0.0000 0.0000 0.0000 
0.0000 0.0000 0.0000 
0.0000 0.0000 0.0000 
0.0000 0.0000 0.0000 
0.0000 0.0000 0.0000 
0.0000 0.0000 0.0000 
0.0000 0.0000 0.0000 
0.0000 0.0000 0.0000 
0.0000 0.0000 0.0000 
0.0000 0.0000 0.0000 
0.0000 0.0000 0.0000 
0.0000 0.0000 0.0000 
0.0000 0.0000 0.0000 
0.0000 0.0000 0.0000 
0.0000 0.0000 0.0000 
0.0000 0.0000 0.0000 
0.0000 0.0000 0.0000 
0.0000 0.0000 0.0000 
0.0000 0.0000 0.0000 
0.0000 0.0000 0.0000 
0.0000 0.0000 0.0000 
0.0000 0.0000 0.0000 
0.0000 0.0000 0.0000 
0.0000 0.0000 0.0000 
0.0000 0.0000 0.0000 
0.0000 0.0000 0.0000 
0.0000 0.0000 0.0000 
0.0000 0.0000 0.0000 
0.0000 0.0000 0.0000 
0.0000 0.0000 0.0000 
0.0000 0.0000 0.0000 
0.0000 0.0000 0.0000 
0.0000 0.0000 0.0000 
0.0000 0.0000 0.0000 
0.0000 0.0000 0.0000 
0.0000 0.0000 0.0000 
0.0000 0.0000 0.0000 
0.0000 0.0000 0.0000 
0.0000 0.0000 0.0000 
0.0000 0.0000 0.0000 
0.0000 0.0000 0.0000 
0.0000 0.0000 0.0000 
0.0000 0.0000 0.0000 
0.0000 0.0000 0.0000 
0.0000 0.0000 0.0000 
0.0000 0.0000 0.0000 
0.0000 0.0000 0.0000 
0.0000 0.0000 0.0000 
0.0000 0.0000 0.0000 
0.0000 0.0000 0.0000 
0.0000 0.0000 0.0000 
0.0000 0.0000 0.0000 
0.0000 0.0000 0.0000 
0.0000 0.0000 0.0000 
0.0000 0.0000 0.0000 
0.0000 0.0000 0.0000 
0.0000 0.0000 0.0000 
0.0000 0.0000 0.0000 
0.0000 0.0000 0.0000 
0.0000 0.0000 0.0000 
0.0000 0.0000 0.0000 
0.0000 0.0000 0.0000 
0.0000 0.0000 0.0000 
0.0000 0.0000 0.0000 
0.0000 0.0000 0.0000 
0.0000 0.0000 0.0000 
0.0000 0.0000 0.0000 
0.0000 0.0000 0.0000 
0.0000 0.0000 0.0000 
0.0000 0.0000 0.0000 
0.0000 0.0000 0.0000 
0.0000 0.0000 0.0000 
0.0000 0.0000 0.0000 
0.0000 0.0000 0.0000 
0.0000 0.0000 0.0000 
0.0000 0.0000 0.0000 
0.0000 0.0000 0.0000 
0.0000 0.0000 0.0000 
0.0000 0.0000 0.0000 
0.0000 0.0000 0.0000 
0.0000 0.0000 0.0000 
0.0000 0.0000 0.0000 
0.0000 0.0000 0.0000 
0.0000 0.0000 0.0000 
0.0000 0.0000 0.0000 
0.0000 0.0000 0.0000 
0.0000 0.0000 0.0000 
0.0000 0.0000 0.0000 
0.0000 0.0000 0.0000 
0.0000 0.0000 0.0000 
0.0000 0.0000 0.0000 
0.0000 0.0000 0.0000 
0.0000 0.0000 0.0000 
0.0000 0.0000 0.0000 
0.0000 0.0000 0.0000 
0.0000 0.0000 0.0000 
0.0000 0.0000 0.0000 
0.0000 0.0000 0.0000 
0.0000 0.0000 0.0000 
0.0000 0.0000 0.0000 
0.0000 0.0000 0.0000 
0.0000 0.0000 0.0000 
0.0000 0.0000 0.0000 
0.0000 0.0000 0.0000 
0.0000 0.0000 0.0000 
0.0000 0.0000 0.0000 
0.0000 0.0000 0.0000 
0.0000 0.0000 0.0000 
0.0000 0.0000 0.0000 
0.0000 0.0000 0.0000 
0.0000 0.0000 0.0000 
0.0000 0.0000 0.0000 
0.0000 0.0000 0.0000 
0.0000 0.0000 0.0000 
0.0000 0.0000 0.0000 
0.0000 0.0000 0.0000 
0.0000 0.0000 0.0000 
0.0000 0.0000 0.0000 
0.0000 0.0000 0.0000 
0.0000 0.0000 0.0000 
0.0000 0.0000 0.0000 
0.0000 0.0000 0.0000 
0.0000 0.0000 0.0000 
0.0000 0.0000 0.0000 
0.0000 0.0000 0.0000 
0.0000 0.0000 0.0000 
0.0000 0.0000 0.0000 
0.0000 0.0000 0.0000 
0.0000 0.0000 0.0000 
0.0000 0.0000 0.0000 
0.0000 0.0000 0.0000 
0.0000 0.0000 0.0000 
0.0000 0.0000 0.0000 
0.0000 0.0000 0.0000 
0.0000 0.0000 0.0000 
0.0000 0.0000 0.0000 
0.0000 0.0000 0.0000 
0.0000 0.0000 0.0000 
0.0000 0.0000 0.0000 
0.0000 0.0000 0.0000 
0.0000 0.0000 0.0000 
0.0000 0.0000 0.0000 
0.0000 0.0000 0.0000 
0.0000 0.0000 0.0000 
0.0000 0.0000 0.0000 
0.0000 0.0000 0.0000 
0.0000 0.0000 0.0000 
0.0000 0.0000 0.0000 
0.0000 0.0000 0.0000 
0.0000 0.0000 0.0000 
0.0000 0.0000 0.0000 
0.0000 0.0000 0.0000 
0.0000 0.0000 0.0000 
0.0000 0.0000 0.0000 
0.0000 0.0000 0.0000 
0.0000 0.0000 0.0000 
0.0000 0.0000 0.0000 
0.0000 0.0000 0.0000 
0.0000 0.0000 0.0000 
0.0000 0.0000 0.0000 
0.0000 0.0000 0.0000 
0.0000 0.0000 0.0000 
0.0000 0.0000 0.0000 
0.0000 0.0000 0.0000 
0.0000 0.0000 0.0000 
0.0000 0.0000 0.0000 
0.0000 0.0000 0.0000 
0.0000 0.0000 0.0000 
0.0000 0.0000 0.0000 
0.0000 0.0000 0.0000 
0.0000 0.0000 0.0000 
0.0000 0.0000 0.0000 
0.0000 0.0000 0.0000 
0.0000 0.0000 0.0000 
0.0000 0.0000 0.0000 
0.0000 0.0000 0.0000 
0.0000 0.0000 0.0000 
0.0000 0.0000 0.0000 
0.0000 0.0000 0.0000 
0.0000 0.0000 0.0000 
0.0000 0.0000 0.0000 
0.0000 0.0000 0.0000 
0.0000 0.0000 0.0000 
0.0000 0.0000 0.0000 
0.0000 0.0000 0.0000 
0.0000 0.0000 0.0000 
0.0000 0.0000 0.0000 
0.0000 0.0000 0.0000 
0.0000 0.0000 0.0000 
0.0000 0.0000 0.0000 
0.0000 0.0000 0.0000 
0.0000 0.0000 0.0000 
0.0000 0.0000 0.0000 
0.0000 0.0000 0.0000 
0.0000 0.0000 0.0000 
0.0000 0.0000 0.0000 
0.0000 0.0000 0.0000 
0.0000 0.0000 0.0000 
0.0000 0.0000 0.0000 
0.0000 0.0000 0.0000 
0.0000 0.0000 0.0000 
0.0000 0.0000 0.0000 
0.0000 0.0000 0.0000 
0.0000 0.0000 0.0000 
0.0000 0.0000 0.0000 
0.0000 0.0000 0.0000 
0.0000 0.0000 0.0000 
0.0000 0.0000 0.0000 
0.0000 0.0000 0.0000 
0.0000 0.0000 0.0000 
0.0000 0.0000 0.0000 
0.0000 0.0000 0.0000 
0.0000 0.0000 0.0000 
0.0000 0.0000 0.0000 
0.0000 0.0000 0.0000 
0.0000 0.0000 0.0000 
0.0000 0.0000 0.0000 
0.0000 0.0000 0.0000 
0.0000 0.0000 0.0000 
0.0000 0.0000 0.0000 
0.0000 0.0000 0.0000 
0.0000 0.0000 0.0000 
0.0000 0.0000 0.0000 
0.0000 0.0000 0.0000 
0.0000 0.0000 0.0000 
0.0000 0.0000 0.0000 
0.0000 0.0000 0.0000 
0.0000 0.0000 0.0000 
0.0000 0.0000 0.0000 
0.0000 0.0000 0.0000 
0.0000 0.0000 0.0000 
0.0000 0.0000 0.0000 
0.0000 0.0000 0.0000 
0.0000 0.0000 0.0000 
0.0000 0.0000 0.0000 
0.0000 0.0000 0.0000 
0.0000 0.0000 0.0000 
0.0000 0.0000 0.0000 
0.0000 0.0000 0.0000 
0.0000 0.0000 0.0000 
0.0000 0.0000 0.0000 
0.0000 0.0000 0.0000 
0.0000 0.0000 0.0000 
0.0000 0.0000 0.0000 
0.0000 0.0000 0.0000 
0.0000 0.0000 0.0000 
0.0000 0.0000 0.0000 
0.0000 0.0000 0.0000 
0.0000 0.0000 0.0000 
0.0000 0.0000 0.0000 
0.0000 0.0000 0.0000 
0.0000 0.0000 0.0000 
0.0000 0.0000 0.0000 
0.0000 0.0000 0.0000 
0.0000 0.0000 0.0000 
0.0000 0.0000 0.0000 
0.0000 0.0000 0.0000 
0.0000 0.0000 0.0000 
0.0000 0.0000 0.0000 
0.0000 0.0000 0.0000 
0.0000 0.0000 0.0000 
0.0000 0.0000 0.0000 
0.0000 0.0000 0.0000 
0.0000 0.0000 0.0000 
0.0000 0.0000 0.0000 
0.0000 0.0000 0.0000 
0.0000 0.0000 0.0000 
0.0000 0.0000 0.0000 
0.0000 0.0000 0.0000 
0.0000 0.0000 0.0000 
0.0000 0.0000 0.0000 
0.0000 0.0000 0.0000 
0.0000 0.0000 0.0000 
0.0000 0.0000 0.0000 
0.0000 0.0000 0.0000 
0.0000 0.0000 0.0000 
0.0000 0.0000 0.0000 
0.0000 0.0000 0.0000 
0.0000 0.0000 0.0000 
0.0000 0.0000 0.0000 
0.0000 0.0000 0.0000 
0.0000 0.0000 0.0000 
0.0000 0.0000 0.0000 
0.0000 0.0000 0.0000 
0.0000 0.0000 0.0000 
0.0000 0.0000 0.0000 
0.0000 0.0000 0.0000 
0.0000 0.0000 0.0000 
0.0000 0.0000 0.0000 
0.0000 0.0000 0.0000 
0.0000 0.0000 0.0000 
0.0000 0.0000 0.0000 
0.0000 0.0000 0.0000 
0.0000 0.0000 0.0000 
0.0000 0.0000 0.0000 
0.0000 0.0000 0.0000 
0.0000 0.0000 0.0000 
0.0000 0.0000 0.0000 
0.0000 0.0000 0.0000 
0.0000 0.0000 0.0000 
0.0000 0.0000 0.0000 
0.0000 0.0000 0.0000 
0.0000 0.0000 0.0000 
0.0000 0.0000 0.0000 
0.0000 0.0000 0.0000 
0.0000 0.0000 0.0000 
0.0000 0.0000 0.0000 
0.0000 0.0000 0.0000 
0.0000 0.0000 0.0000 
0.0000 0.0000 0.0000 
0.0000 0.0000 0.0000 
0.0000 0.0000 0.0000 
0.0000 0.0000 0.0000 
0.0000 0.0000 0.0000 
0.0000 0.0000 0.0000 
0.0000 0.0000 0.0000 
0.0000 0.0000 0.0000 
0.0000 0.0000 0.0000 
0.0000 0.0000 0.0000 
0.0000 0.0000 0.0000 
0.0000 0.0000 0.0000 
0.0000 0.0000 0.0000 
0.0000 0.0000 0.0000 
0.0000 0.0000 0.0000 
0.0000 0.0000 0.0000 
0.0000 0.0000 0.0000 
0.0000 0.0000 0.0000 
0.0000 0.0000 0.0000 
0.0000 0.0000 0.0000 
0.0000 0.0000 0.0000 
0.0000 0.0000 0.0000 
0.0000 0.0000 0.0000 
0.0000 0.0000 0.0000 
0.0000 0.0000 0.0000 
0.0000 0.0000 0.0000 
0.0000 0.0000 0.0000 
0.0000 0.0000 0.0000 
0.0000 0.0000 0.0000 
0.0000 0.0000 0.0000 
0.0000 0.0000 0.0000 
0.0000 0.0000 0.0000 
0.0000 0.0000 0.0000 
0.0000 0.0000 0.0000 
0.0000 0.0000 0.0000 
0.0000 0.0000 0.0000 
0.0000 0.0000 0.0000 
0.0000 0.0000 0.0000 
0.0000 0.0000 0.0000 
0.0000 0.0000 0.0000 
0.0000 0.0000 0.0000 
0.0000 0.0000 0.0000 
0.0000 0.0000 0.0000 
0.0000 0.0000 0.0000 
0.0000 0.0000 0.0000 
0.0000 0.0000 0.0000 
0.0000 0.0000 0.0000 
0.0000 0.0000 0.0000 
0.0000 0.0000 0.0000 
0.0000 0.0000 0.0000 
0.0000 0.0000 0.0000 
0.0000 0.0000 0.0000 
0.0000 0.0000 0.0000 
0.0000 0.0000 0.0000 
0.0000 0.0000 0.0000 
0.0000 0.0000 0.0000 
0.0000 0.0000 0.0000 
0.0000 0.0000 0.0000 
0.0000 0.0000 0.0000 
0.0000 0.0000 0.0000 
0.0000 0.0000 0.0000 
0.0000 0.0000 0.0000 
0.0000 0.0000 0.0000 
0.0000 0.0000 0.0000 
0.0000 0.0000 0.0000 
0.0000 0.0000 0.0000 
0.0000 0.0000 0.0000 
0.0000 0.0000 0.0000 
0.0000 0.0000 0.0000 
0.0000 0.0000 0.0000 
0.0000 0.0000 0.0000 
0.0000 0.0000 0.0000 
0.0000 0.0000 0.0000 
0.0000 0.0000 0.0000 
0.0000 0.0000 0.0000 
0.0000 0.0000 0.0000 
0.0000 0.0000 0.0000 
0.0000 0.0000 0.0000 
0.0000 0.0000 0.0000 
0.0000 0.0000 0.0000 
0.0000 0.0000 0.0000 
0.0000 0.0000 0.0000 
0.0000 0.0000 0.0000 
0.0000 0.0000 0.0000 
0.0000 0.0000 0.0000 
0.0000 0.0000 0.0000 
0.0000 0.0000 0.0000 
0.0000 0.0000 0.0000 
0.0000 0.0000 0.0000 
0.0000 0.0000 0.0000 
0.0000 0.0000 0.0000 
0.0000 0.0000 0.0000 
0.0000 0.0000 0.0000 
0.0000 0.0000 0.0000 
0.0000 0.0000 0.0000 
0.0000 0.0000 0.0000 
0.0000 0.0000 0.0000 
0.0000 0.0000 0.0000 
0.0000 0.0000 0.0000 
0.0000 0.0000 0.0000 
0.0000 0.0000 0.0000 
0.0000 0.0000 0.0000 
0.0000 0.0000 0.0000 
0.0000 0.0000 0.0000 
0.0000 0.0000 0.0000 
0.0000 0.0000 0.0000 
0.0000 0.0000 0.0000 
0.0000 0.0000 0.0000 
0.0000 0.0000 0.0000 
0.0000 0.0000 0.0000 
0.0000 0.0000 0.0000 
0.0000 0.0000 0.0000 
0.0000 0.0000 0.0000 
0.0000 0.0000 0.0000 
0.0000 0.0000 0.0000 
0.0000 0.0000 0.0000 
0.0000 0.0000 0.0000 
0.0000 0.0000 0.0000 
0.0000 0.0000 0.0000 
0.0000 0.0000 0.0000 
0.0000 0.0000 0.0000 
0.0000 0.0000 0.0000 
0.0000 0.0000 0.0000 
0.0000 0.0000 0.0000 
0.0000 0.0000 0.0000 
0.0000 0.0000 0.0000 
0.0000 0.0000 0.0000 
0.0000 0.0000 0.0000 
0.0000 0.0000 0.0000 
0.0000 0.0000 0.0000 
0.0000 0.0000 0.0000 
0.0000 0.0000 0.0000 
0.0000 0.0000 0.0000 
0.0000 0.0000 0.0000 
0.0000 0.0000 0.0000 
0.0000 0.0000 0.0000 
0.0000 0.0000 0.0000 
0.0000 0.0000 0.0000 
0.0000 0.0000 0.0000 
0.0000 0.0000 0.0000 
0.0000 0.0000 0.0000 
0.0000 0.0000 0.0000 
0.0000 0.0000 0.0000 
0.0000 0.0000 0.0000 
0.0000 0.0000 0.0000 
0.0000 0.0000 0.0000 
0.0000 0.0000 0.0000 
0.0000 0.0000 0.0000 
0.0000 0.0000 0.0000 
0.0000 0.0000 0.0000 
0.0000 0.0000 0.0000 
0.0000 0.0000 0.0000 
0.0000 0.0000 0.0000 
0.0000 0.0000 0.0000 
0.0000 0.0000 0.0000 
0.0000 0.0000 0.0000 
0.0000 0.0000 0.0000 
0.0000 0.0000 0.0000 
0.0000 0.0000 0.0000 
0.0000 0.0000 0.0000 
0.0000 0.0000 0.0000 
0.0000 0.0000 0.0000 
0.0000 0.0000 0.0000 
0.0000 0.0000 0.0000 
0.0000 0.0000 0.0000 
0.0000 0.0000 0.0000 
0.0000 0.0000 0.0000 
0.0000 0.0000 0.0000 
0.0000 0.0000 0.0000 
0.0000 0.0000 0.0000 
0.0000 0.0000 0.0000 
0.0000 0.0000 0.0000 
0.0000 0.0000 0.0000 
0.0000 0.0000 0.0000 
0.0000 0.0000 0.0000 
0.0000 0.0000 0.0000 
0.0000 0.0000 0.0000 
0.0000 0.0000 0.0000 
0.0000 0.0000 0.0000 
0.0000 0.0000 0.0000 
0.0000 0.0000 0.0000 
0.0000 0.0000 0.0000 
0.0000 0.0000 0.0000 
0.0000 0.0000 0.0000 
0.0000 0.0000 0.0000 
0.0000 0.0000 0.0000 
0.0000 0.0000 0.0000 
0.0000 0.0000 0.0000 
0.0000 0.0000 0.0000 
0.0000 0.0000 0.0000 
0.0000 0.0000 0.0000 
0.0000 0.0000 0.0000 
0.0000 0.0000 0.0000 
0.0000 0.0000 0.0000 
0.0000 0.0000 0.0000 
0.0000 0.0000 0.0000 
0.0000 0.0000 0.0000 
0.0000 0.0000 0.0000 
0.0000 0.0000 0.0000 
0.0000 0.0000 0.0000 
0.0000 0.0000 0.0000 
0.0000 0.0000 0.0000 
0.0000 0.0000 0.0000 
0.0000 0.0000 0.0000 
0.0000 0.0000 0.0000 
0.0000 0.0000 0.0000 
0.0000 0.0000 0.0000 
0.0000 0.0000 0.0000 
0.0000 0.0000 0.0000 
0.0000 0.0000 0.0000 
0.0000 0.0000 0.0000 
0.0000 0.0000 0.0000 
0.0000 0.0000 0.0000 
0.0000 0.0000 0.0000 
0.0000 0.0000 0.0000 
0.0000 0.0000 0.0000 
0.0000 0.0000 0.0000 
0.0000 0.0000 0.0000 
0.0000 0.0000 0.0000 
0.0000 0.0000 0.0000 
0.0000 0.0000 0.0000 
0.0000 0.0000 0.0000 
0.0000 0.0000 0.0000 
0.0000 0.0000 0.0000 
0.0000 0.0000 0.0000 
0.0000 0.0000 0.0000 
0.0000 0.0000 0.0000 
0.0000 0.0000 0.0000 
0.0000 0.0000 0.0000 
0.0000 0.0000 0.0000 
0.0000 0.0000 0.0000 
0.0000 0.0000 0.0000 
0.0000 0.0000 0.0000 
0.0000 0.0000 0.0000 
0.0000 0.0000 0.0000 
0.0000 0.0000 0.0000 
0.0000 0.0000 0.0000 
0.0000 0.0000 0.0000 
0.0000 0.0000 0.0000 
0.0000 0.0000 0.0000 
0.0000 0.0000 0.0000 
0.0000 0.0000 0.0000 
0.0000 0.0000 0.0000 
0.0000 0.0000 0.0000 
0.0000 0.0000 0.0000 
0.0000 0.0000 0.0000 
0.0000 0.0000 0.0000 
0.0000 0.0000 0.0000 
0.0000 0.0000 0.0000 
0.0000 0.0000 0.0000 
0.0000 0.0000 0.0000 
0.0000 0.0000 0.0000 
0.0000 0.0000 0.0000 
0.0000 0.0000 0.0000 
0.0000 0.0000 0.0000 
0.0000 0.0000 0.0000 
0.0000 0.0000 0.0000 
0.0000 0.0000 0.0000 
0.0000 0.0000 0.0000 
0.0000 0.0000 0.0000 
0.0000 0.0000 0.0000 
0.0000 0.0000 0.0000 
0.0000 0.0000 0.0000 
0.0000 0.0000 0.0000 
0.0000 0.0000 0.0000 
0.0000 0.0000 0.0000 
0.0000 0.0000 0.0000 
0.0000 0.0000 0.0000 
0.0000 0.0000 0.0000 
0.0000 0.0000 0.0000 
0.0000 0.0000 0.0000 
0.0000 0.0000 0.0000 
0.0000 0.0000 0.0000 
0.0000 0.0000 0.0000 
0.0000 0.0000 0.0000 
0.0000 0.0000 0.0000 
0.0000 0.0000 0.0000 
0.0000 0.0000 0.0000 
0.0000 0.0000 0.0000 
0.0000 0.0000 0.0000 
0.0000 0.0000 0.0000 
0.0000 0.0000 0.0000 
0.0000 0.0000 0.0000 
0.0000 0.0000 0.0000 
0.0000 0.0000 0.0000 
0.0000 0.0000 0.0000 
0.0000 0.0000 0.0000 
0.0000 0.0000 0.0000 
0.0000 0.0000 0.0000 
0.0000 0.0000 0.0000 
0.0000 0.0000 0.0000 
0.0000 0.0000 0.0000 
0.0000 0.0000 0.0000 
0.0000 0.0000 0.0000 
0.0000 0.0000 0.0000 
0.0000 0.0000 0.0000 
0.0000 0.0000 0.0000 
0.0000 0.0000 0.0000 
0.0000 0.0000 0.0000 
0.0000 0.0000 0.0000 
0.0000 0.0000 0.0000 
0.0000 0.0000 0.0000 
0.0000 0.0000 0.0000 
0.0000 0.0000 0.0000 
0.0000 0.0000 0.0000 
0.0000 0.0000 0.0000 
0.0000 0.0000 0.0000 
0.0000 0.0000 0.0000 
0.0000 0.0000 0.0000 
0.0000 0.0000 0.0000 
0.0000 0.0000 0.0000 
0.0000 0.0000 0.0000 
0.0000 0.0000 0.0000 
0.0000 0.0000 0.0000 
0.0000 0.0000 0.0000 
0.0000 0.0000 0.0000 
0.0000 0.0000 0.0000 
0.0000 0.0000 0.0000 
0.0000 0.0000 0.0000 
0.0000 0.0000 0.0000 
0.0000 0.0000 0.0000 
0.0000 0.0000 0.0000 
0.0000 0.0000 0.0000 
0.0000 0.0000 0.0000 
0.0000 0.0000 0.0000 
0.0000 0.0000 0.0000 
0.0000 0.0000 0.0000 
0.0000 0.0000 0.0000 
0.0000 0.0000 0.0000 
0.0000 0.0000 0.0000 
0.0000 0.0000 0.0000 
0.0000 0.0000 0.0000 
0.0000 0.0000 0.0000 
0.0000 0.0000 0.0000 
0.0000 0.0000 0.0000 
0.0000 0.0000 0.0000 
0.0000 0.0000 0.0000 
0.0000 0.0000 0.0000 
0.0000 0.0000 0.0000 
0.0000 0.0000 0.0000 
0.0000 0.0000 0.0000 
0.0000 0.0000 0.0000 
0.0000 0.0000 0.0000 
0.0000 0.0000 0.0000 
0.0000 0.0000 0.0000 
0.0000 0.0000 0.0000 
0.0000 0.0000 0.0000 
0.0000 0.0000 0.0000 
0.0000 0.0000 0.0000 
0.0000 0.0000 0.0000 
0.0000 0.0000 0.0000 
0.0000 0.0000 0.0000 
0.0000 0.0000 0.0000 
0.0000 0.0000 0.0000 
0.0000 0.0000 0.0000 
0.0000 0.0000 0.0000 
0.0000 0.0000 0.0000 
0.0000 0.0000 0.0000 
0.0000 0.0000 0.0000 
0.0000 0.0000 0.0000 
0.0000 0.0000 0.0000 
0.0000 0.0000 0.0000 
0.0000 0.0000 0.0000 
0.0000 0.0000 0.0000 
0.0000 0.0000 0.0000 
0.0000 0.0000 0.0000 
0.0000 0.0000 0.0000 
0.0000 0.0000 0.0000 
0.0000 0.0000 0.0000 
0.0000 0.0000 0.0000 
0.0000 0.0000 0.0000 
0.0000 0.0000 0.0000 
0.0000 0.0000 0.0000 
0.0000 0.0000 0.0000 
0.0000 0.0000 0.0000 
0.0000 0.0000 0.0000 
0.0000 0.0000 0.0000 
0.0000 0.0000 0.0000 
0.0000 0.0000 0.0000 
0.0000 0.0000 0.0000 
0.0000 0.0000 0.0000 
0.0000 0.0000 0.0000 
0.0000 0.0000 0.0000 
0.0000 0.0000 0.0000 
0.0000 0.0000 0.0000 
0.0000 0.0000 0.0000 
0.0000 0.0000 0.0000 
0.0000 0.0000 0.0000 
0.0000 0.0000 0.0000 
0.0000 0.0000 0.0000 
0.0000 0.0000 0.0000 
0.0000 0.0000 0.0000 
0.0000 0.0000 0.0000 
0.0000 0.0000 0.0000 
0.0000 0.0000 0.0000 
0.0000 0.0000 0.0000 
0.0000 0.0000 0.0000 
0.0000 0.0000 0.0000 
0.0000 0.0000 0.0000 
0.0000 0.0000 0.0000 
0.0000 0.0000 0.0000 
0.0000 0.0000 0.0000 
0.0000 0.0000 0.0000 
0.0000 0.0000 0.0000 
0.0000 0.0000 0.0000 
0.0000 0.0000 0.0000 
0.0000 0.0000 0.0000 
0.0000 0.0000 0.0000 
0.0000 0.0000 0.0000 
0.0000 0.0000 0.0000 
0.0000 0.0000 0.0000 
0.0000 0.0000 0.0000 
0.0000 0.0000 0.0000 
0.0000 0.0000 0.0000 
0.0000 0.0000 0.0000 
0.0000 0.0000 0.0000 
0.0000 0.0000 0.0000 
0.0000 0.0000 0.0000 
0.0000 0.0000 0.0000 
0.0000 0.0000 0.0000 
0.0000 0.0000 0.0000 
0.0000 0.0000 0.0000 
0.0000 0.0000 0.0000 
0.0000 0.0000 0.0000 
0.0000 0.0000 0.0000 
0.0000 0.0000 0.0000 
0.0000 0.0000 0.0000 
0.0000 0.0000 0.0000 
0.0000 0.0000 0.0000 
0.0000 0.0000 0.0000 
0.0000 0.0000 0.0000 
0.0000 0.0000 0.0000 
0.0000 0.0000 0.0000 
0.0000 0.0000 0.0000 
0.0000 0.0000 0.0000 
0.0000 0.0000 0.0000 
0.0000 0.0000 0.0000 
0.0000 0.0000 0.0000 
0.0000 0.0000 0.0000 
0.0000 0.0000 0.0000 
0.0000 0.0000 0.0000 
0.0000 0.0000 0.0000 
0.0000 0.0000 0.0000 
0.0000 0.0000 0.0000 
0.0000 0.0000 0.0000 
0.0000 0.0000 0.0000 
0.0000 0.0000 0.0000 
0.0000 0.0000 0.0000 
0.0000 0.0000 0.0000 
0.0000 0.0000 0.0000 
0.0000 0.0000 0.0000 
0.0000 0.0000 0.0000 
0.0000 0.0000 0.0000 
0.0000 0.0000 0.0000 
0.0000 0.0000 0.0000 
0.0000 0.0000 0.0000 
0.0000 0.0000 0.0000 
0.0000 0.0000 0.0000 
0.0000 0.0000 0.0000 
0.0000 0.0000 0.0000 
0.0000 0.0000 0.0000 
0.0000 0.0000 0.0000 
0.0000 0.0000 0.0000 
0.0000 0.0000 0.0000 
0.0000 0.0000 0.0000 
0.0000 0.0000 0.0000 
0.0000 0.0000 0.0000 
0.0000 0.0000 0.0000 
0.0000 0.0000 0.0000 
0.0000 0.0000 0.0000 
0.0000 0.0000 0.0000 
0.0000 0.0000 0.0000 
0.0000 0.0000 0.0000 
0.0000 0.0000 0.0000 
0.0000 0.0000 0.0000 
0.0000 0.0000 0.0000 
0.0000 0.0000 0.0000 
0.0000 0.0000 0.0000 
0.0000 0.0000 0.0000 
0.0000 0.0000 0.0000 
0.0000 0.0000 0.0000 
0.0000 0.0000 0.0000 
0.0000 0.0000 0.0000 
0.0000 0.0000 0.0000 
0.0000 0.0000 0.0000 
0.0000 0.0000 0.0000 
0.0000 0.0000 0.0000 
0.0000 0.0000 0.0000 
0.0000 0.0000 0.0000 
0.0000 0.0000 0.0000 
0.0000 0.0000 0.0000 
0.0000 0.0000 0.0000 
0.0000 0.0000 0.0000 
0.0000 0.0000 0.0000 
0.0000 0.0000 0.0000 
0.0000 0.0000 0.0000 
0.0000 0.0000 0.0000 
0.0000 0.0000 0.0000 
0.0000 0.0000 0.0000 
0.0000 0.0000 0.0000 
0.0000 0.0000 0.0000 
0.0000 0.0000 0.0000 
0.0000 0.0000 0.0000 
0.0000 0.0000 0.0000 
0.0000 0.0000 0.0000 
0.0000 0.0000 0.0000 
0.0000 0.0000 0.0000 
0.0000 0.0000 0.0000 
0.0000 0.0000 0.0000 
0.0000 0.0000 0.0000 
0.0000 0.0000 0.0000 
0.0000 0.0000 0.0000 
0.0000 0.0000 0.0000 
0.0000 0.0000 0.0000 
0.0000 0.0000 0.0000 
0.0000 0.0000 0.0000 
0.0000 0.0000 0.0000 
0.0000 0.0000 0.0000 
0.0000 0.0000 0.0000 
0.0000 0.0000 0.0000 
0.0000 0.0000 0.0000 
0.0000 0.0000 0.0000 
0.0000 0.0000 0.0000 
0.0000 0.0000 0.0000 
0.0000 0.0000 0.0000 
0.0000 0.0000 0.0000 
0.0000 0.0000 0.0000 
0.0000 0.0000 0.0000 
0.0000 0.0000 0.0000 
0.0000 0.0000 0.0000 
0.0000 0.0000 0.0000 
0.0000 0.0000 0.0000 
0.0000 0.0000 0.0000 
0.0000 0.0000 0.0000 
0.0000 0.0000 0.0000 
0.0000 0.0000 0.0000 
0.0000 0.0000 0.0000 
0.0000 0.0000 0.0000 
0.0000 0.0000 0.0000 
0.0000 0.0000 0.0000 
0.0000 0.0000 0.0000 
0.0000 0.0000 0.0000 
0.0000 0.0000 0.0000 
0.0000 0.0000 0.0000 
0.0000 0.0000 0.0000 
0.0000 0.0000 0.0000 
0.0000 0.0000 0.0000 
0.0000 0.0000 0.0000 
0.0000 0.0000 0.0000 
0.0000 0.0000 0.0000 
0.0000 0.0000 0.0000 
0.0000 0.0000 0.0000 
0.0000 0.0000 0.0000 
0.0000 0.0000 0.0000 
0.0000 0.0000 0.0000 
0.0000 0.0000 0.0000 
0.0000 0.0000 0.0000 
0.0000 0.0000 0.0000 
0.0000 0.0000 0.0000 
0.0000 0.0000 0.0000 
0.0000 0.0000 0.0000 
0.0000 0.0000 0.0000 
0.0000 0.0000 0.0000 
0.0000 0.0000 0.0000 
0.0000 0.0000 0.0000 
0.0000 0.0000 0.0000 
0.0000 0.0000 0.0000 
0.0000 0.0000 0.0000 
0.0000 0.0000 0.0000 
0.0000 0.0000 0.0000 
0.0000 0.0000 0.0000 
0.0000 0.0000 0.0000 
0.0000 0.0000 0.0000 
0.0000 0.0000 0.0000 
0.0000 0.0000 0.0000 
0.0000 0.0000 0.0000 
0.0000 0.0000 0.0000 
0.0000 0.0000 0.0000 
0.0000 0.0000 0.0000 
0.0000 0.0000 0.0000 
0.0000 0.0000 0.0000 
0.0000 0.0000 0.0000 
0.0000 0.0000 0.0000 
0.0000 0.0000 0.0000 
0.0000 0.0000 0.0000 
0.0000 0.0000 0.0000 
0.0000 0.0000 0.0000 
0.0000 0.0000 0.0000 
0.0000 0.0000 0.0000 
0.0000 0.0000 0.0000 
0.0000 0.0000 0.0000 
0.0000 0.0000 0.0000 
0.0000 0.0000 0.0000 
0.0000 0.0000 0.0000 
0.0000 0.0000 0.0000 
0.0000 0.0000 0.0000 
0.0000 0.0000 0.0000 
0.0000 0.0000 0.0000 
0.0000 0.0000 0.0000 
0.0000 0.0000 0.0000 
0.0000 0.0000 0.0000 
0.0000 0.0000 0.0000 
0.0000 0.0000 0.0000 
0.0000 0.0000 0.0000 
0.0000 0.0000 0.0000 
0.0000 0.0000 0.0000 
0.0000 0.0000 0.0000 
0.0000 0.0000 0.0000 
0.0000 0.0000 0.0000 
0.0000 0.0000 0.0000 
0.0000 0.0000 0.0000 
0.0000 0.0000 0.0000 
0.0000 0.0000 0.0000 
0.0000 0.0000 0.0000 
0.0000 0.0000 0.0000 
0.0000 0.0000 0.0000 
0.0000 0.0000 0.0000 
0.0000 0.0000 0.0000 
0.0000 0.0000 0.0000 
0.0000 0.0000 0.0000 
0.0000 0.0000 0.0000 
0.0000 0.0000 0.0000 
0.0000 0.0000 0.0000 
0.0000 0.0000 0.0000 
0.0000 0.0000 0.0000 
0.0000 0.0000 0.0000 
0.0000 0.0000 0.0000 
0.0000 0.0000 0.0000 
0.0000 0.0000 0.0000 
0.0000 0.0000 0.0000 
0.0000 0.0000 0.0000 
0.0000 0.0000 0.0000 
0.0000 0.0000 0.0000 
0.0000 0.0000 0.0000 
0.0000 0.0000 0.0000 
0.0000 0.0000 0.0000 
0.0000 0.0000 0.0000 
0.0000 0.0000 0.0000 
0.0000 0.0000 0.0000 
0.0000 0.0000 0.0000 
0.0000 0.0000 0.0000 
0.0000 0.0000 0.0000 
0.0000 0.0000 0.0000 
0.0000 0.0000 0.0000 
0.0000 0.0000 0.0000 
0.0000 0.0000 0.0000 
0.0000 0.0000 0.0000 
0.0000 0.0000 0.0000 
0.0000 0.0000 0.0000 
0.0000 0.0000 0.0000 
0.0000 0.0000 0.0000 
0.0000 0.0000 0.0000 
0.0000 0.0000 0.0000 
0.0000 0.0000 0.0000 
0.0000 0.0000 0.0000 
0.0000 0.0000 0.0000 
0.0000 0.0000 0.0000 
0.0000 0.0000 0.0000 
0.0000 0.0000 0.0000 
0.0000 0.0000 0.0000 
0.0000 0.0000 0.0000 
0.0000 0.0000 0.0000 
0.0000 0.0000 0.0000 
0.0000 0.0000 0.0000 
0.0000 0.0000 0.0000 
0.0000 0.0000 0.0000 
0.0000 0.0000 0.0000 
0.0000 0.0000 0.0000 
0.0000 0.0000 0.0000 
0.0000 0.0000 0.0000 
0.0000 0.0000 0.0000 
0.0000 0.0000 0.0000 
0.0000 0.0000 0.0000 
0.0000 0.0000 0.0000 
0.0000 0.0000 0.0000 
0.0000 0.0000 0.0000 
0.0000 0.0000 0.0000 
0.0000 0.0000 0.0000 
0.0000 0.0000 0.0000 
0.0000 0.0000 0.0000 
0.0000 0.0000 0.0000 
0.0000 0.0000 0.0000 
0.0000 0.0000 0.0000 
0.0000 0.0000 0.0000 
0.0000 0.0000 0.0000 
0.0000 0.0000 0.0000 
0.0000 0.0000 0.0000 
0.0000 0.0000 0.0000 
0.0000 0.0000 0.0000 
0.0000 0.0000 0.0000 
0.0000 0.0000 0.0000 
0.0000 0.0000 0.0000 
0.0000 0.0000 0.0000 
0.0000 0.0000 0.0000 
0.0000 0.0000 0.0000 
0.0000 0.0000 0.0000 
0.0000 0.0000 0.0000 
0.0000 0.0000 0.0000 
0.0000 0.0000 0.0000 
0.0000 0.0000 0.0000 
0.0000 0.0000 0.0000 
0.0000 0.0000 0.0000 
0.0000 0.0000 0.0000 
0.0000 0.0000 0.0000 
0.0000 0.0000 0.0000 
0.0000 0.0000 0.0000 
0.0000 0.0000 0.0000 
0.0000 0.0000 0.0000 
0.0000 0.0000 0.0000 
0.0000 0.0000 0.0000 
0.0000 0.0000 0.0000 
0.0000 0.0000 0.0000 
0.0000 0.0000 0.0000 
0.0000 0.0000 0.0000 
0.0000 0.0000 0.0000 
0.0000 0.0000 0.0000 
0.0000 0.0000 0.0000 
0.0000 0.0000 0.0000 
0.0000 0.0000 0.0000 
0.0000 0.0000 0.0000 
0.0000 0.0000 0.0000 
0.0000 0.0000 0.0000 
0.0000 0.0000 0.0000 
0.0000 0.0000 0.0000 
0.0000 0.0000 0.0000 
0.0000 0.0000 0.0000 
0.0000 0.0000 0.0000 
0.0000 0.0000 0.0000 
0.0000 0.0000 0.0000 
0.0000 0.0000 0.0000 
0.0000 0.0000 0.0000 
0.0000 0.0000 0.0000 
0.0000 0.0000 0.0000 
0.0000 0.0000 0.0000 
0.0000 0.0000 0.0000 
0.0000 0.0000 0.0000 
0.0000 0.0000 0.0000 
0.0000 0.0000 0.0000 
0.0000 0.0000 0.0000 
0.0000 0.0000 0.0000 
0.0000 0.0000 0.0000 
0.0000 0.0000 0.0000 
0.0000 0.0000 0.0000 
0.0000 0.0000 0.0000 
0.0000 0.0000 0.0000 
0.0000 0.0000 0.0000 
0.0000 0.0000 0.0000 
0.0000 0.0000 0.0000 
0.0000 0.0000 0.0000 
0.0000 0.0000 0.0000 
0.0000 0.0000 0.0000 
0.0000 0.0000 0.0000 
0.0000 0.0000 0.0000 
0.0000 0.0000 0.0000 
0.0000 0.0000 0.0000 
0.0000 0.0000 0.0000 
0.0000 0.0000 0.0000 
0.0000 0.0000 0.0000 
0.0000 0.0000 0.0000 
0.0000 0.0000 0.0000 
0.0000 0.0000 0.0000 
0.0000 0.0000 0.0000 
0.0000 0.0000 0.0000 
0.0000 0.0000 0.0000 
0.0000 0.0000 0.0000 
0.0000 0.0000 0.0000 
0.0000 0.0000 0.0000 
0.0000 0.0000 0.0000 
0.0000 0.0000 0.0000 
0.0000 0.0000 0.0000 
0.0000 0.0000 0.0000 
0.0000 0.0000 0.0000 
0.0000 0.0000 0.0000 
0.0000 0.0000 0.0000 
0.0000 0.0000 0.0000 
0.0000 0.0000 0.0000 
0.0000 0.0000 0.0000 
0.0000 0.0000 0.0000 
0.0000 0.0000 0.0000 
0.0000 0.0000 0.0000 
0.0000 0.0000 0.0000 
0.0000 0.0000 0.0000 
0.0000 0.0000 0.0000 
0.0000 0.0000 0.0000 
0.0000 0.0000 0.0000 
0.0000 0.0000 0.0000 
0.0000 0.0000 0.0000 
0.0000 0.0000 0.0000 
0.0000 0.0000 0.0000 
0.0000 0.0000 0.0000 
0.0000 0.0000 0.0000 
0.0000 0.0000 0.0000 
0.0000 0.0000 0.0000 
0.0000 0.0000 0.0000 
0.0000 0.0000 0.0000 
0.0000 0.0000 0.0000 
0.0000 0.0000 0.0000 
0.0000 0.0000 0.0000 
0.0000 0.0000 0.0000 
0.0000 0.0000 0.0000 
0.0000 0.0000 0.0000 
0.0000 0.0000 0.0000 
0.0000 0.0000 0.0000 
0.0000 0.0000 0.0000 
0.0000 0.0000 0.0000 
0.0000 0.0000 0.0000 
0.0000 0.0000 0.0000 
0.0000 0.0000 0.0000 
0.0000 0.0000 0.0000 
0.0000 0.0000 0.0000 
0.0000 0.0000 0.0000 
0.0000 0.0000 0.0000 
0.0000 0.0000 0.0000 
0.0000 0.0000 0.0000 
0.0000 0.0000 0.0000 
0.0000 0.0000 0.0000 
0.0000 0.0000 0.0000 
0.0000 0.0000 0.0000 
0.0000 0.0000 0.0000 
0.0000 0.0000 0.0000 
0.0000 0.0000 0.0000 
0.0000 0.0000 0.0000 
0.0000 0.0000 0.0000 
0.0000 0.0000 0.0000 
0.0000 0.0000 0.0000 
0.0000 0.0000 0.0000 
0.0000 0.0000 0.0000 
0.0000 0.0000 0.0000 
0.0000 0.0000 0.0000 
0.0000 0.0000 0.0000 
0.0000 0.0000 0.0000 
0.0000 0.0000 0.0000 
0.0000 0.0000 0.0000 
0.0000 0.0000 0.0000 
0.0000 0.0000 0.0000 
0.0000 0.0000 0.0000 
0.0000 0.0000 0.0000 
0.0000 0.0000 0.0000 
0.0000 0.0000 0.0000 
0.0000 0.0000 0.0000 
0.0000 0.0000 0.0000 
0.0000 0.0000 0.0000 
0.0000 0.0000 0.0000 
0.0000 0.0000 0.0000 
0.0000 0.0000 0.0000 
0.0000 0.0000 0.0000 
0.0000 0.0000 0.0000 
0.0000 0.0000 0.0000 
0.0000 0.0000 0.0000 
0.0000 0.0000 0.0000 
0.0000 0.0000 0.0000 
0.0000 0.0000 0.0000 
0.0000 0.0000 0.0000 
0.0000 0.0000 0.0000 
0.0000 0.0000 0.0000 
0.0000 0.0000 0.0000 
0.0000 0.0000 0.0000 
0.0000 0.0000 0.0000 
0.0000 0.0000 0.0000 
0.0000 0.0000 0.0000 
0.0000 0.0000 0.0000 
0.0000 0.0000 0.0000 
0.0000 0.0000 0.0000 
0.0000 0.0000 0.0000 
0.0000 0.0000 0.0000 
0.0000 0.0000 0.0000 
0.0000 0.0000 0.0000 
0.0000 0.0000 0.0000 
0.0000 0.0000 0.0000 
0.0000 0.0000 0.0000 
0.0000 0.0000 0.0000 
0.0000 0.0000 0.0000 
0.0000 0.0000 0.0000 
0.0000 0.0000 0.0000 
0.0000 0.0000 0.0000 
0.0000 0.0000 0.0000 
0.0000 0.0000 0.0000 
0.0000 0.0000 0.0000 
0.0000 0.0000 0.0000 
0.0000 0.0000 0.0000 
0.0000 0.0000 0.0000 
0.0000 0.0000 0.0000 
0.0000 0.0000 0.0000 
0.0000 0.0000 0.0000 
0.0000 0.0000 0.0000 
0.0000 0.0000 0.0000 
0.0000 0.0000 0.0000 
0.0000 0.0000 0.0000 
0.0000 0.0000 0.0000 
0.0000 0.0000 0.0000 
0.0000 0.0000 0.0000 
0.0000 0.0000 0.0000 
0.0000 0.0000 0.0000 
0.0000 0.0000 0.0000 
0.0000 0.0000 0.0000 
0.0000 0.0000 0.0000 
0.0000 0.0000 0.0000 
0.0000 0.0000 0.0000 
0.0000 0.0000 0.0000 
0.0000 0.0000 0.0000 
0.0000 0.0000 0.0000 
0.0000 0.0000 0.0000 
0.0000 0.0000 0.0000 
0.0000 0.0000 0.0000 
0.0000 0.0000 0.0000 
0.0000 0.0000 0.0000 
0.0000 0.0000 0.0000 
0.0000 0.0000 0.0000 
0.0000 0.0000 0.0000 
0.0000 0.0000 0.0000 
0.0000 0.0000 0.0000 
0.0000 0.0000 0.0000 
0.0000 0.0000 0.0000 
0.0000 0.0000 0.0000 
0.0000 0.0000 0.0000 
0.0000 0.0000 0.0000 
0.0000 0.0000 0.0000 
0.0000 0.0000 0.0000 
0.0000 0.0000 0.0000 
0.0000 0.0000 0.0000 
0.0000 0.0000 0.0000 
0.0000 0.0000 0.0000 
0.0000 0.0000 0.0000 
0.0000 0.0000 0.0000 
0.0000 0.0000 0.0000 
0.0000 0.0000 0.0000 
0.0000 0.0000 0.0000 
0.0000 0.0000 0.0000 
0.0000 0.0000 0.0000 
0.0000 0.0000 0.0000 
0.0000 0.0000 0.0000 
0.0000 0.0000 0.0000 
0.0000 0.0000 0.0000 
0.0000 0.0000 0.0000 
0.0000 0.0000 0.0000 
0.0000 0.0000 0.0000 
0.0000 0.0000 0.0000 
0.0000 0.0000 0.0000 
0.0000 0.0000 0.0000 
0.0000 0.0000 0.0000 
0.0000 0.0000 0.0000 
0.0000 0.0000 0.0000 
0.0000 0.0000 0.0000 
0.0000 0.0000 0.0000 
0.0000 0.0000 0.0000 
0.0000 0.0000 0.0000 
0.0000 0.0000 0.0000 
0.0000 0.0000 0.0000 
0.0000 0.0000 0.0000 
0.0000 0.0000 0.0000 
0.0000 0.0000 0.0000 
0.0000 0.0000 0.0000 
0.0000 0.0000 0.0000 
0.0000 0.0000 0.0000 
0.0000 0.0000 0.0000 
0.0000 0.0000 0.0000 
0.0000 0.0000 0.0000 
0.0000 0.0000 0.0000 
0.0000 0.0000 0.0000 
0.0000 0.0000 0.0000 
0.0000 0.0000 0.0000 
0.0000 0.0000 0.0000 
0.0000 0.0000 0.0000 
0.0000 0.0000 0.0000 
0.0000 0.0000 0.0000 
0.0000 0.0000 0.0000 
0.0000 0.0000 0.0000 
0.0000 0.0000 0.0000 
0.0000 0.0000 0.0000 
0.0000 0.0000 0.0000 
0.0000 0.0000 0.0000 
0.0000 0.0000 0.0000 
0.0000 0.0000 0.0000 
0.0000 0.0000 0.0000 
0.0000 0.0000 0.0000 
0.0000 0.0000 0.0000 
0.0000 0.0000 0.0000 
0.0000 0.0000 0.0000 
0.0000 0.0000 0.0000 
0.0000 0.0000 0.0000 
0.0000 0.0000 0.0000 
0.0000 0.0000 0.0000 
0.0000 0.0000 0.0000 
0.0000 0.0000 0.0000 
0.0000 0.0000 0.0000 
0.0000 0.0000 0.0000 
0.0000 0.0000 0.0000 
0.0000 0.0000 0.0000 
0.0000 0.0000 0.0000 
0.0000 0.0000 0.0000 
0.0000 0.0000 0.0000 
0.0000 0.0000 0.0000 
0.0000 0.0000 0.0000 
0.0000 0.0000 0.0000 
0.0000 0.0000 0.0000 
0.0000 0.0000 0.0000 
0.0000 0.0000 0.0000 
0.0000 0.0000 0.0000 
0.0000 0.0000 0.0000 
0.0000 0.0000 0.0000 
0.0000 0.0000 0.0000 
0.0000 0.0000 0.0000 
0.0000 0.0000 0.0000 
0.0000 0.0000 0.0000 
0.0000 0.0000 0.0000 
0.0000 0.0000 0.0000 
0.0000 0.0000 0.0000 
0.0000 0.0000 0.0000 
0.0000 0.0000 0.0000 
0.0000 0.0000 0.0000 
0.0000 0.0000 0.0000 
0.0000 0.0000 0.0000 
0.0000 0.0000 0.0000 
0.0000 0.0000 0.0000 
0.0000 0.0000 0.0000 
0.0000 0.0000 0.0000 
0.0000 0.0000 0.0000 
0.0000 0.0000 0.0000 
0.0000 0.0000 0.0000 
0.0000 0.0000 0.0000 
0.0000 0.0000 0.0000 
0.0000 0.0000 0.0000 
0.0000 0.0000 0.0000 
0.0000 0.0000 0.0000 
0.0000 0.0000 0.0000 
0.0000 0.0000 0.0000 
0.0000 0.0000 0.0000 
0.0000 0.0000 0.0000 
0.0000 0.0000 0.0000 
0.0000 0.0000 0.0000 
0.0000 0.0000 0.0000 
0.0000 0.0000 0.0000 
0.0000 0.0000 0.0000 
0.0000 0.0000 0.0000 
0.0000 0.0000 0.0000 
0.0000 0.0000 0.0000 
0.0000 0.0000 0.0000 
0.0000 0.0000 0.0000 
0.0000 0.0000 0.0000 
0.0000 0.0000 0.0000 
0.0000 0.0000 0.0000 
0.0000 0.0000 0.0000 
0.0000 0.0000 0.0000 
0.0000 0.0000 0.0000 
0.0000 0.0000 0.0000 
0.0000 0.0000 0.0000 
0.0000 0.0000 0.0000 
0.0000 0.0000 0.0000 
0.0000 0.0000 0.0000 
0.0000 0.0000 0.0000 
0.0000 0.0000 0.0000 
0.0000 0.0000 0.0000 
0.0000 0.0000 0.0000 
0.0000 0.0000 0.0000 
0.0000 0.0000 0.0000 
0.0000 0.0000 0.0000 
0.0000 0.0000 0.0000 
0.0000 0.0000 0.0000 
0.0000 0.0000 0.0000 
0.0000 0.0000 0.0000 
0.0000 0.0000 0.0000 
0.0000 0.0000 0.0000 
0.0000 0.0000 0.0000 
0.0000 0.0000 0.0000 
0.0000 0.0000 0.0000 
0.0000 0.0000 0.0000 
0.0000 0.0000 0.0000 
0.0000 0.0000 0.0000 
0.0000 0.0000 0.0000 
0.0000 0.0000 0.0000 
0.0000 0.0000 0.0000 
0.0000 0.0000 0.0000 
0.0000 0.0000 0.0000 
0.0000 0.0000 0.0000 
0.0000 0.0000 0.0000 
0.0000 0.0000 0.0000 
0.0000 0.0000 0.0000 
0.0000 0.0000 0.0000 
0.0000 0.0000 0.0000 
0.0000 0.0000 0.0000 
0.0000 0.0000 0.0000 
0.0000 0.0000 0.0000 
0.0000 0.0000 0.0000 
0.0000 0.0000 0.0000 
0.0000 0.0000 0.0000 
0.0000 0.0000 0.0000 
0.0000 0.0000 0.0000 
0.0000 0.0000 0.0000 
0.0000 0.0000 0.0000 
0.0000 0.0000 0.0000 
0.0000 0.0000 0.0000 
0.0000 0.0000 0.0000 
0.0000 0.0000 0.0000 
0.0000 0.0000 0.0000 
0.0000 0.0000 0.0000 
0.0000 0.0000 0.0000 
0.0000 0.0000 0.0000 
0.0000 0.0000 0.0000 
0.0000 0.0000 0.0000 
0.0000 0.0000 0.0000 
0.0000 0.0000 0.0000 
0.0000 0.0000 0.0000 
0.0000 0.0000 0.0000 
0.0000 0.0000 0.0000 
0.0000 0.0000 0.0000 
0.0000 0.0000 0.0000 
0.0000 0.0000 0.0000 
0.0000 0.0000 0.0000 
0.0000 0.0000 0.0000 
0.0000 0.0000 0.0000 
0.0000 0.0000 0.0000 
0.0000 0.0000 0.0000 
0.0000 0.0000 0.0000 
0.0000 0.0000 0.0000 
0.0000 0.0000 0.0000 
0.0000 0.0000 0.0000 
0.0000 0.0000 0.0000 
0.0000 0.0000 0.0000 
0.0000 0.0000 0.0000 
0.0000 0.0000 0.0000 
0.0000 0.0000 0.0000 
0.0000 0.0000 0.0000 
0.0000 0.0000 0.0000 
0.0000 0.0000 0.0000 
0.0000 0.0000 0.0000 
0.0000 0.0000 0.0000 
0.0000 0.0000 0.0000 
0.0000 0.0000 0.0000 
0.0000 0.0000 0.0000 
0.0000 0.0000 0.0000 
0.0000 0.0000 0.0000 
0.0000 0.0000 0.0000 
0.0000 0.0000 0.0000 
0.0000 0.0000 0.0000 
0.0000 0.0000 0.0000 
0.0000 0.0000 0.0000 
0.0000 0.0000 0.0000 
0.0000 0.0000 0.0000 
0.0000 0.0000 0.0000 
0.0000 0.0000 0.0000 
0.0000 0.0000 0.0000 
0.0000 0.0000 0.0000 
0.0000 0.0000 0.0000 
0.0000 0.0000 0.0000 
0.0000 0.0000 0.0000 
0.0000 0.0000 0.0000 
0.0000 0.0000 0.0000 
0.0000 0.0000 0.0000 
0.0000 0.0000 0.0000 
0.0000 0.0000 0.0000 
0.0000 0.0000 0.0000 
0.0000 0.0000 0.0000 
0.0000 0.0000 0.0000 
0.0000 0.0000 0.0000 
0.0000 0.0000 0.0000 
0.0000 0.0000 0.0000 
0.0000 0.0000 0.0000 
0.0000 0.0000 0.0000 
0.0000 0.0000 0.0000 
0.0000 0.0000 0.0000 
0.0000 0.0000 0.0000 
0.0000 0.0000 0.0000 
0.0000 0.0000 0.0000 
0.0000 0.0000 0.0000 
0.0000 0.0000 0.0000 
0.0000 0.0000 0.0000 
0.0000 0.0000 0.0000 
0.0000 0.0000 0.0000 
0.0000 0.0000 0.0000 
0.0000 0.0000 0.0000 
0.0000 0.0000 0.0000 
0.0000 0.0000 0.0000 
0.0000 0.0000 0.0000 
0.0000 0.0000 0.0000 
0.0000 0.0000 0.0000 
0.0000 0.0000 0.0000 
0.0000 0.0000 0.0000 
0.0000 0.0000 0.0000 
0.0000 0.0000 0.0000 
0.0000 0.0000 0.0000 
0.0000 0.0000 0.0000 
0.0000 0.0000 0.0000 
0.0000 0.0000 0.0000 
0.0000 0.0000 0.0000 
0.0000 0.0000 0.0000 
0.0000 0.0000 0.0000 
0.0000 0.0000 0.0000 
0.0000 0.0000 0.0000 
0.0000 0.0000 0.0000 
0.0000 0.0000 0.0000 
0.0000 0.0000 0.0000 
0.0000 0.0000 0.0000 
0.0000 0.0000 0.0000 
0.0000 0.0000 0.0000 
0.0000 0.0000 0.0000 
0.0000 0.0000 0.0000 
0.0000 0.0000 0.0000 
0.0000 0.0000 0.0000 
0.0000 0.0000 0.0000 
0.0000 0.0000 0.0000 
0.0000 0.0000 0.0000 
0.0000 0.0000 0.0000 
0.0000 0.0000 0.0000 
0.0000 0.0000 0.0000 
0.0000 0.0000 0.0000 
0.0000 0.0000 0.0000 
0.0000 0.0000 0.0000 
0.0000 0.0000 0.0000 
0.0000 0.0000 0.0000 
0.0000 0.0000 0.0000 
0.0000 0.0000 0.0000 
0.0000 0.0000 0.0000 
0.0000 0.0000 0.0000 
0.0000 0.0000 0.0000 
0.0000 0.0000 0.0000 
0.0000 0.0000 0.0000 
0.0000 0.0000 0.0000 
0.0000 0.0000 0.0000 
0.0000 0.0000 0.0000 
0.0000 0.0000 0.0000 
0.0000 0.0000 0.0000 
0.0000 0.0000 0.0000 
0.0000 0.0000 0.0000 
0.0000 0.0000 0.0000 
0.0000 0.0000 0.0000 
0.0000 0.0000 0.0000 
0.0000 0.0000 0.0000 
0.0000 0.0000 0.0000 
0.0000 0.0000 0.0000 
0.0000 0.0000 0.0000 
0.0000 0.0000 0.0000 
0.0000 0.0000 0.0000 
0.0000 0.0000 0.0000 
0.0000 0.0000 0.0000 
0.0000 0.0000 0.0000 
0.0000 0.0000 0.0000 
0.0000 0.0000 0.0000 
0.0000 0.0000 0.0000 
0.0000 0.0000 0.0000 
0.0000 0.0000 0.0000 
0.0000 0.0000 0.0000 
0.0000 0.0000 0.0000 
0.0000 0.0000 0.0000 
0.0000 0.0000 0.0000 
0.0000 0.0000 0.0000 
0.0000 0.0000 0.0000 
0.0000 0.0000 0.0000 
0.0000 0.0000 0.0000 
0.0000 0.0000 0.0000 
0.0000 0.0000 0.0000 
0.0000 0.0000 0.0000 
0.0000 0.0000 0.0000 
0.0000 0.0000 0.0000 
0.0000 0.0000 0.0000 
0.0000 0.0000 0.0000 
0.0000 0.0000 0.0000 
0.0000 0.0000 0.0000 
0.0000 0.0000 0.0000 
0.0000 0.0000 0.0000 
0.0000 0.0000 0.0000 
0.0000 0.0000 0.0000 
0.0000 0.0000 0.0000 
0.0000 0.0000 0.0000 
0.0000 0.0000 0.0000 
0.0000 0.0000 0.0000 
0.0000 0.0000 0.0000 
0.0000 0.0000 0.0000 
0.0000 0.0000 0.0000 
0.0000 0.0000 0.0000 
0.0000 0.0000 0.0000 
0.0000 0.0000 0.0000 
0.0000 0.0000 0.0000 
0.0000 0.0000 0.0000 
0.0000 0.0000 0.0000 
0.0000 0.0000 0.0000 
0.0000 0.0000 0.0000 
0.0000 0.0000 0.0000 
0.0000 0.0000 0.0000 
0.0000 0.0000 0.0000 
0.0000 0.0000 0.0000 
0.0000 0.0000 0.0000 
0.0000 0.0000 0.0000 
0.0000 0.0000 0.0000 
0.0000 0.0000 0.0000 
0.0000 0.0000 0.0000 
0.0000 0.0000 0.0000 
0.0000 0.0000 0.0000 
0.0000 0.0000 0.0000 
0.0000 0.0000 0.0000 
0.0000 0.0000 0.0000 
0.0000 0.0000 0.0000 
0.0000 0.0000 0.0000 
0.0000 0.0000 0.0000 
0.0000 0.0000 0.0000 
0.0000 0.0000 0.0000 
0.0000 0.0000 0.0000 
0.0000 0.0000 0.0000 
0.0000 0.0000 0.0000 
0.0000 0.0000 0.0000 
0.0000 0.0000 0.0000 
0.0000 0.0000 0.0000 
0.0000 0.0000 0.0000 
0.0000 0.0000 0.0000 
0.0000 0.0000 0.0000 
0.0000 0.0000 0.0000 
0.0000 0.0000 0.0000 
0.0000 0.0000 0.0000 
0.0000 0.0000 0.0000 
0.0000 0.0000 0.0000 
0.0000 0.0000 0.0000 
0.0000 0.0000 0.0000 
0.0000 0.0000 0.0000 
0.0000 0.0000 0.0000 
0.0000 0.0000 0.0000 
0.0000 0.0000 0.0000 
0.0000 0.0000 0.0000 
0.0000 0.0000 0.0000 
0.0000 0.0000 0.0000 
0.0000 0.0000 0.0000 
0.0000 0.0000 0.0000 
0.0000 0.0000 0.0000 
0.0000 0.0000 0.0000 
0.0000 0.0000 0.0000 
0.0000 0.0000 0.0000 
0.0000 0.0000 0.0000 
0.0000 0.0000 0.0000 
0.0000 0.0000 0.0000 
0.0000 0.0000 0.0000 
0.0000 0.0000 0.0000 
0.0000 0.0000 0.0000 
0.0000 0.0000 0.0000 
0.0000 0.0000 0.0000 
0.0000 0.0000 0.0000 
0.0000 0.0000 0.0000 
0.0000 0.0000 0.0000 
0.0000 0.0000 0.0000 
0.0000 0.0000 0.0000 
0.0000 0.0000 0.0000 
0.0000 0.0000 0.0000 
0.0000 0.0000 0.0000 
0.0000 0.0000 0.0000 
0.0000 0.0000 0.0000 
0.0000 0.0000 0.0000 
0.0000 0.0000 0.0000 
0.0000 0.0000 0.0000 
0.0000 0.0000 0.0000 
0.0000 0.0000 0.0000 
0.0000 0.0000 0.0000 
0.0000 0.0000 0.0000 
0.0000 0.0000 0.0000 
0.0000 0.0000 0.0000 
0.0000 0.0000 0.0000 
0.0000 0.0000 0.0000 
0.0000 0.0000 0.0000 
0.0000 0.0000 0.0000 
0.0000 0.0000 0.0000 
0.0000 0.0000 0.0000 
0.0000 0.0000 0.0000 
0.0000 0.0000 0.0000 
0.0000 0.0000 0.0000 
0.0000 0.0000 0.0000 
0.0000 0.0000 0.0000 
0.0000 0.0000 0.0000 
0.0000 0.0000 0.0000 
0.0000 0.0000 0.0000 
0.0000 0.0000 0.0000 
0.0000 0.0000 0.0000 
0.0000 0.0000 0.0000 
0.0000 0.0000 0.0000 
0.0000 0.0000 0.0000 
0.0000 0.0000 0.0000 
0.0000 0.0000 0.0000 
0.0000 0.0000 0.0000 
0.0000 0.0000 0.0000 
0.0000 0.0000 0.0000 
0.0000 0.0000 0.0000 
0.0000 0.0000 0.0000 
0.0000 0.0000 0.0000 
0.0000 0.0000 0.0000 
0.0000 0.0000 0.0000 
0.0000 0.0000 0.0000 
0.0000 0.0000 0.0000 
0.0000 0.0000 0.0000 
0.0000 0.0000 0.0000 
0.0000 0.0000 0.0000 
0.0000 0.0000 0.0000 
0.0000 0.0000 0.0000 
0.0000 0.0000 0.0000 
0.0000 0.0000 0.0000 
0.0000 0.0000 0.0000 
0.0000 0.0000 0.0000 
0.0000 0.0000 0.0000 
0.0000 0.0000 0.0000 
0.0000 0.0000 0.0000 
0.0000 0.0000 0.0000 
0.0000 0.0000 0.0000 
0.0000 0.0000 0.0000 
0.0000 0.0000 0.0000 
0.0000 0.0000 0.0000 
0.0000 0.0000 0.0000 
0.0000 0.0000 0.0000 
0.0000 0.0000 0.0000 
0.0000 0.0000 0.0000 
0.0000 0.0000 0.0000 
0.0000 0.0000 0.0000 
0.0000 0.0000 0.0000 
0.0000 0.0000 0.0000 
0.0000 0.0000 0.0000 
0.0000 0.0000 0.0000 
0.0000 0.0000 0.0000 
0.0000 0.0000 0.0000 
0.0000 0.0000 0.0000 
0.0000 0.0000 0.0000 
0.0000 0.0000 0.0000 
0.0000 0.0000 0.0000 
0.0000 0.0000 0.0000 
0.0000 0.0000 0.0000 
0.0000 0.0000 0.0000 
0.0000 0.0000 0.0000 
0.0000 0.0000 0.0000 
0.0000 0.0000 0.0000 
0.0000 0.0000 0.0000 
0.0000 0.0000 0.0000 
0.0000 0.0000 0.0000 
0.0000 0.0000 0.0000 
0.0000 0.0000 0.0000 
0.0000 0.0000 0.0000 
0.0000 0.0000 0.0000 
0.0000 0.0000 0.0000 
0.0000 0.0000 0.0000 
0.0000 0.0000 0.0000 
0.0000 0.0000 0.0000 
0.0000 0.0000 0.0000 
0.0000 0.0000 0.0000 
0.0000 0.0000 0.0000 
0.0000 0.0000 0.0000 
0.0000 0.0000 0.0000 
0.0000 0.0000 0.0000 
0.0000 0.0000 0.0000 
0.0000 0.0000 0.0000 
0.0000 0.0000 0.0000 
0.0000 0.0000 0.0000 
0.0000 0.0000 0.0000 
0.0000 0.0000 0.0000 
0.0000 0.0000 0.0000 
0.0000 0.0000 0.0000 
0.0000 0.0000 0.0000 
0.0000 0.0000 0.0000 
0.0000 0.0000 0.0000 
0.0000 0.0000 0.0000 
0.0000 0.0000 0.0000 
0.0000 0.0000 0.0000 
0.0000 0.0000 0.0000 
0.0000 0.0000 0.0000 
0.0000 0.0000 0.0000 
0.0000 0.0000 0.0000 
0.0000 0.0000 0.0000 
VECTORS Reactions float
-0.1917 -0.1644 -0.2587 
-0.3781 -0.5120 -0.4683 
-0.3410 -0.9469 -0.8394 
-0.2094 -1.0866 -0.9669 
-0.1403 -1.0522 -0.9707 
-0.1548 -0.9070 -0.8824 
-0.2370 -0.8732 -0.8469 
-0.2658 -0.9941 -0.9288 
-0.2113 -0.9909 -0.9210 
-0.2032 -0.8235 -0.7756 
-0.2156 -0.7942 -0.7552 
-0.1887 -0.7466 -0.7129 
-0.2043 -0.7069 -0.6778 
-0.2443 -0.7979 -0.7549 
-0.2168 -0.9782 -0.9061 
-0.1674 -1.0080 -0.9246 
-0.1556 -0.9755 -0.9141 
-0.1730 -0.8659 -0.8260 
-0.2066 -0.7934 -0.7390 
-0.1515 -0.7752 -0.7126 
-0.0651 -0.5479 -0.4929 
-0.0438 -0.3209 -0.2936 
-0.0232 -0.1503 -0.1466 
-0.0160 0.0208 0.0133 
-0.0195 0.0546 0.0507 
-0.4005 -0.2985 -0.3743 
-0.9311 -1.1463 -0.6295 
-0.9919 -2.3140 -1.6401 
-0.8482 -2.6701 -1.7307 
-0.8797 -2.4298 -1.6509 
-0.9925 -2.0849 -1.3774 
-1.1846 -2.0239 -1.3219 
-1.3415 -2.2294 -1.5420 
-1.3943 -2.1979 -1.5371 
-1.4200 -1.8462 -1.1188 
-1.3092 -1.7958 -1.1912 
-1.1029 -1.7143 -1.0956 
-1.0075 -1.6744 -1.0561 
-0.9404 -1.9298 -1.2268 
-0.8555 -2.1941 -1.4981 
-0.8257 -2.2377 -1.4998 
-0.9300 -2.0760 -1.4741 
-1.1694 -1.8215 -1.2482 
-1.3906 -1.7767 -1.1275 
-1.2498 -1.8013 -1.2373 
-0.9783 -1.3686 -0.7980 
-0.8335 -0.9454 -0.5459 
-0.5854 -0.5416 -0.3395 
-0.3682 0.0286 0.1027 
-0.1772 0.1164 0.1614 
-0.4916 -0.3193 -0.4697 
-1.2165 -1.4662 -0.9445 
-1.6046 -3.1476 -2.2233 
-1.8428 -3.6010 -2.3875 
-2.2626 -3.2874 -1.9153 
-2.5541 -3.0569 -1.7951 
-2.6986 -3.0653 -1.7682 
-3.1480 -2.8542 -1.7172 
-3.6374 -2.7199 -1.6227 
-3.6624 -2.8345 -0.8969 
-3.3486 -2.6989 -0.7054 
-2.9003 -2.4420 -0.8722 
-2.4533 -2.5724 -0.9349 
-2.0177 -2.8134 -1.3700 
-1.8765 -2.7875 -1.2185 
-2.0358 -2.7509 -1.1799 
-2.2945 -2.3868 -1.3225 
-2.7818 -2.0895 -1.2869 
-3.2557 -2.4398 -1.0987 
-3.3061 -2.6934 -1.0524 
-2.9822 -2.3076 -0.8974 
-2.4147 -1.8061 -1.0881 
-1.5475 -1.2133 -0.6247 
-0.9845 -0.3087 0.6406 
-0.4811 0.0510 0.4373 
-0.5055 -0.3536 -0.4875 
-1.1931 -1.7337 -0.7659 
-1.7758 -3.6542 -1.2883 
-2.5278 -3.8837 -1.0293 
-3.2980 -3.8879 -0.8631 
-3.6394 -4.0943 -1.4016 
-3.6294 -3.7931 -1.8635 
-4.0149 -3.0951 -1.0186 
-4.7692 -3.2562 -0.6723 
-4.8013 -3.9738 -0.9714 
-4.3102 -3.8057 -0.2707 
-3.8016 -3.4221 0.0541 
-3.2866 -3.7744 -0.0010 
-2.9360 -3.5385 -0.4138 
-2.8498 -3.0933 0.1387 
-3.0512 -3.0998 0.5374 
-3.1572 -2.7862 -0.0658 
-3.3802 -2.3625 -0.5716 
-3.8392 -2.9917 -1.1953 
-4.0703 -3.6611 -1.0304 
-3.9218 -3.6134 -0.6276 
-3.2633 -3.0550 -0.7334 
-2.2215 -2.0999 -0.1613 
-1.3974 -0.7671 0.6677 
-0.6034 -0.0644 0.5387 
-0.6220 -0.3880 -0.5840 
-1.5068 -1.8380 -1.0097 
-2.2192 -3.7502 -1.0742 
-3.1422 -3.9886 0.0150 
-4.1105 -4.0724 -0.0379 
-4.3609 -4.3998 -0.7532 
-4.2579 -3.9649 0.0037 
-4.4836 -3.3443 0.1261 
-4.5707 -3.7537 -1.0658 
-4.4028 -4.5103 -1.0415 
-4.0625 -4.7159 -0.4238 
-3.6316 -4.3533 -0.0800 
-3.4453 -4.3391 -0.6555 
-3.4716 -3.8626 -0.4212 
-3.6177 -3.3582 0.4807 
-3.9273 -3.2949 0.5921 
-3.9419 -3.2330 -0.4698 
-3.8302 -2.9408 -0.6397 
-3.8828 -3.4531 -1.5696 
-3.9508 -4.2182 -1.1570 
-4.1211 -4.3161 -0.7524 
-3.6767 -3.8145 -0.6290 
-2.6878 -3.0526 0.6791 
-1.8020 -1.2646 1.2384 
-0.7582 -0.1787 0.7106 
-0.7199 -0.3405 -0.6580 
-1.7784 -1.6788 -1.0815 
-2.8288 -3.6117 -1.1414 
-3.6616 -3.9587 -1.1359 
-4.1954 -3.6633 -0.1275 
-4.5687 -3.9553 1.0527 
-4.8042 -3.9796 1.9092 
-4.7753 -3.6854 0.2051 
-4.1501 -4.0606 -0.8227 
-3.9949 -4.8227 0.5148 
-3.8908 -5.2849 -0.2603 
-3.5023 -4.8004 -0.1354 
-3.7555 -4.2264 -0.1117 
-3.9220 -3.9656 -0.7263 
-3.7814 -3.6794 -0.6687 
-3.8656 -3.1083 -0.4365 
-4.0335 -3.2546 -0.4703 
-4.1420 -3.7056 -0.5274 
-4.0556 -4.0920 -1.3684 
-4.0161 -4.4224 -0.4196 
-4.1374 -4.2770 0.7938 
-3.7478 -4.1022 1.2935 
-2.7821 -3.6189 1.1220 
-1.7616 -1.5561 0.9500 
-0.7414 -0.2378 0.6928 
-0.7299 -0.2566 -0.6846 
-1.8574 -1.3550 -1.2404 
-3.1012 -3.2536 -1.6064 
-4.1313 -3.7119 -1.6115 
-4.6562 -3.3406 -0.0763 
-4.7708 -3.8230 1.1835 
-4.6788 -4.0647 1.6190 
-4.3265 -3.7726 -0.2118 
-3.7406 -4.1817 -0.3227 
-3.8516 -5.1343 0.8987 
-4.1922 -5.3831 0.1607 
-4.2450 -4.8313 -0.3682 
-4.4400 -4.4085 0.0075 
-4.5890 -4.2602 -0.4500 
-4.2523 -3.9921 -1.0622 
-3.7107 -3.3465 -0.3161 
-3.5883 -3.6368 0.3405 
-3.7003 -4.2550 -0.7776 
-3.7912 -4.6798 -1.2337 
-3.8248 -4.7422 -0.1843 
-3.7875 -4.4169 1.4607 
-3.3943 -4.2678 1.3314 
-2.6254 -3.6523 1.5495 
-1.9685 -1.5812 1.4539 
-0.8925 -0.2731 0.8617 
-0.6536 -0.2663 -0.6310 
-1.5496 -1.1952 -0.8176 
-2.6712 -2.6770 -0.8950 
-4.1041 -3.2379 -1.0363 
-5.0329 -3.2868 -0.8578 
-5.0696 -3.9656 -0.3656 
-4.4814 -4.3927 -0.1176 
-3.6626 -4.2129 -0.0048 
-3.4073 -4.2600 0.5727 
-3.6455 -4.7227 0.0007 
-4.2630 -4.8565 0.3233 
-4.7785 -4.6914 -0.4564 
-4.4263 -4.5838 -0.3895 
-4.2454 -4.4249 0.3602 
-4.2305 -4.3674 0.0369 
-3.7591 -3.9584 -0.0643 
-3.2489 -4.1521 -0.0901 
-3.3119 -4.4055 -0.6216 
-3.9684 -4.6739 -1.1127 
-4.2981 -4.7066 -0.9477 
-3.9768 -4.5588 0.4039 
-3.2924 -3.9862 0.8600 
-2.4808 -3.4050 1.2599 
-1.8175 -1.5884 1.1775 
-0.8243 -0.3206 0.8075 
-0.8543 -0.3049 -0.8074 
-1.8878 -1.1794 -1.2819 
-2.7716 -2.3996 -0.8305 
-4.0367 -2.8257 -0.3203 
-4.6672 -3.2132 -1.0595 
-4.6329 -4.3757 -0.4235 
-4.5262 -4.7139 -0.4212 
-4.0575 -4.7558 -0.3067 
-3.6925 -4.4379 -0.0458 
-3.6881 -3.9023 -0.1850 
-4.2919 -4.1091 0.5244 
-4.5516 -4.8275 -0.2609 
-3.9239 -4.9989 0.1761 
-3.8974 -4.4062 1.1417 
-4.0214 -4.3560 0.3548 
-3.8229 -4.1504 0.7926 
-3.7701 -4.2873 0.4575 
-3.7728 -4.3431 -0.6506 
-4.2538 -4.1197 -0.4780 
-5.0708 -4.2349 0.4798 
-5.0063 -4.5719 0.4283 
-4.0080 -4.1560 1.1929 
-2.8789 -3.3371 1.5033 
-1.8351 -1.4705 1.2454 
-0.7796 -0.2756 0.7884 
-1.0105 -0.2639 -0.9253 
-2.3523 -1.0591 -1.5331 
-3.1651 -2.3162 -1.5848 
-3.7935 -3.0131 -0.6113 
-4.1050 -3.6453 -0.6707 
-4.1666 -4.5632 -0.4698 
-4.4947 -4.5512 0.4197 
-4.7341 -4.8687 0.6888 
-4.3255 -4.4763 0.2224 
-3.9259 -3.4509 0.5977 
-3.9543 -3.6661 0.5654 
-3.7241 -5.0603 -0.2115 
-3.3752 -5.1646 -0.2184 
-3.5433 -3.8900 0.3971 
-3.9311 -3.7166 0.4448 
-4.1526 -3.7792 0.9203 
-4.3781 -4.2512 1.0330 
-4.2877 -4.2033 -0.2870 
-4.0478 -3.6282 -0.0244 
-4.3779 -3.9333 1.1090 
-4.6853 -4.5521 0.7083 
-4.0454 -4.5898 0.6963 
-2.9879 -3.5471 1.8774 
-2.0436 -1.4700 1.4761 
-0.8543 -0.2136 0.8640 
-1.0789 -0.1997 -0.9917 
-2.3937 -1.0276 -1.7009 
-3.0392 -2.5462 -1.8060 
-3.5919 -3.5200 -1.1430 
-3.8347 -4.0508 -1.2165 
-3.9435 -4.3200 0.0697 
-4.2214 -4.2996 0.8735 
-4.3227 -4.8302 0.7477 
-4.3951 -4.4168 0.7237 
-4.3491 -3.3477 0.9320 
-4.1152 -3.5499 0.7990 
-3.8908 -4.9677 0.3056 
-3.8509 -4.7247 0.5037 
-4.0466 -3.2435 0.6833 
-4.2972 -2.9850 0.3255 
-4.3840 -3.2466 0.3965 
-4.6066 -3.9913 0.9504 
-4.7396 -4.1261 0.1814 
-4.3880 -3.7836 0.1877 
-4.0476 -3.8650 0.1944 
-3.9068 -4.3661 -0.3169 
-3.3379 -4.6007 -0.1709 
-2.7855 -3.5394 2.1918 
-2.3019 -1.2840 1.5624 
-0.9865 -0.1508 0.9565 
-0.9544 -0.1960 -0.9061 
-2.0455 -1.1950 -1.3185 
-2.5193 -2.8910 -1.4240 
-2.8984 -3.6464 -0.8763 
-3.1586 -3.8856 -0.5436 
-3.3674 -4.3339 0.3955 
-3.3117 -4.4706 -0.0861 
-3.1479 -4.3483 -0.2970 
-3.5891 -3.7946 0.0346 
-3.9879 -3.1373 0.3843 
-3.9874 -3.5651 0.5085 
-4.1228 -4.5708 0.5827 
-4.6425 -4.2382 0.7861 
-4.9070 -3.1121 0.1594 
-4.9616 -2.8170 0.1864 
-4.7422 -3.1381 -0.4561 
-4.4233 -3.6486 0.1893 
-4.7436 -3.7645 0.3666 
-4.8238 -3.9489 -0.1597 
-4.4153 -4.2880 -0.2167 
-3.9818 -4.6179 -0.4407 
-3.5248 -4.4542 -0.0296 
-3.1490 -3.2355 1.6942 
-2.6189 -1.0983 1.8776 
-1.1965 -0.1676 1.1559 
-0.9475 -0.2444 -0.9061 
-1.9291 -1.3613 -1.3141 
-2.3436 -3.0386 -0.3057 
-2.6889 -3.6874 0.8088 
-2.8330 -3.9346 0.6089 
-3.1210 -4.3137 0.0907 
-3.2010 -4.4206 -0.7834 
-3.2401 -3.8714 0.1982 
-3.4384 -3.2459 -0.0404 
-3.4742 -2.9688 -0.1607 
-3.5800 -3.3274 -0.4164 
-3.6678 -3.9773 -0.0499 
-4.0987 -3.9255 0.2590 
-4.4561 -3.1087 -0.8873 
-4.4376 -3.0325 -0.9327 
-4.2767 -3.4484 -0.1948 
-3.9223 -3.5614 0.2366 
-3.7595 -3.3406 0.6554 
-3.9538 -3.7688 0.6315 
-4.0849 -4.5605 -0.2639 
-3.9659 -4.9660 -0.8457 
-3.9057 -4.2313 0.2239 
-3.4805 -2.8099 1.2194 
-2.5721 -1.1956 1.7833 
-1.1656 -0.2602 1.1356 
-0.9863 -0.2497 -0.9235 
-2.0755 -1.2795 -1.3262 
-2.6915 -3.1076 -0.1325 
-3.2340 -4.0986 0.6945 
-3.2222 -4.1721 -0.3945 
-3.3012 -3.9624 -0.4976 
-3.7479 -4.0211 0.0350 
-4.0877 -3.9333 0.9916 
-4.1382 -3.4850 0.1255 
-3.9018 -2.9735 -0.6629 
-3.8137 -3.1515 -0.1067 
-3.9283 -3.8740 0.4546 
-3.9272 -3.9643 -0.6679 
-3.8581 -3.3435 -1.3231 
-3.8274 -3.3971 -1.0686 
-3.9194 -4.0091 0.2187 
-4.0636 -3.6541 0.3079 
-3.9184 -3.0438 0.4033 
-3.7236 -3.7461 0.5293 
-3.7880 -4.5548 0.3189 
-3.9180 -4.7428 -0.2326 
-3.7040 -3.9413 0.7065 
-3.1686 -2.7716 1.8207 
-2.2975 -1.2369 1.5126 
-0.9901 -0.2525 0.9976 
-1.0274 -0.2021 -0.9543 
-2.2849 -1.1015 -1.5401 
-3.0387 -2.9408 -1.1936 
-3.5900 -4.1593 -0.6641 
-3.6240 -4.0951 -0.9841 
-3.4816 -3.6900 -0.4480 
-3.7227 -3.8066 0.3792 
-4.1215 -3.7365 0.1808 
-4.4398 -3.5010 -0.4199 
-4.5100 -3.1804 -0.6554 
-4.4170 -3.6028 0.0727 
-4.3557 -4.3586 0.1867 
-4.1036 -4.2703 -0.4134 
-3.8761 -3.9222 -0.8326 
-3.9201 -3.8920 -1.2205 
-4.1890 -4.2572 -0.8067 
-4.4968 -3.5456 -0.0348 
-4.4797 -3.0270 0.5568 
-4.0622 -3.8613 0.2506 
-3.6401 -4.4679 -0.3302 
-3.7595 -4.4648 0.2664 
-3.7692 -3.7917 0.8111 
-3.0800 -2.8255 1.5019 
-2.2324 -1.0779 1.4802 
-1.0143 -0.1604 1.0192 
-0.9553 -0.1666 -0.8942 
-2.1116 -1.0161 -1.3938 
-2.7202 -2.8177 -1.1882 
-3.1812 -4.0824 0.0141 
-3.4768 -4.2073 0.5229 
-3.4744 -3.8866 0.0958 
-3.3093 -3.7597 -0.2545 
-3.3728 -3.2421 0.0712 
-3.7614 -3.3256 0.0057 
-3.9700 -3.5080 -0.8931 
-3.9963 -3.9964 -0.9407 
-4.0143 -4.5968 -0.4756 
-3.9640 -4.8094 0.3173 
-3.8812 -4.3506 -0.0032 
-3.9718 -3.8840 -0.7458 
-4.3453 -3.8685 -1.0820 
-4.7384 -3.3308 -0.2580 
-4.5740 -3.4717 0.0727 
-4.1255 -4.3954 0.6170 
-3.9528 -4.2718 -0.1385 
-4.0355 -4.0584 -0.0017 
-4.0942 -3.5404 0.4817 
-3.5124 -2.6630 1.4631 
-2.6403 -1.0142 1.8071 
-1.2028 -0.1394 1.1727 
-0.8950 -0.1945 -0.8472 
-2.0018 -1.1352 -1.2836 
-2.7108 -2.9320 -1.2299 
-3.4354 -4.1213 -0.0422 
-3.9245 -4.4425 0.3665 
-3.8671 -4.2800 -0.2270 
-3.4720 -4.0102 -0.5984 
-3.2926 -3.5979 0.1775 
-3.2140 -3.7964 -0.2879 
-3.0858 -3.6930 -0.6944 
-3.2294 -3.9470 -0.7436 
-3.4749 -4.4535 -0.4100 
-3.5792 -4.7723 0.0350 
-3.7348 -4.4151 1.0411 
-3.9340 -3.7858 0.5915 
-4.0519 -3.5240 0.2484 
-4.3031 -3.4094 0.1175 
-4.1340 -4.0493 -0.6388 
-3.9045 -4.7607 -0.3066 
-4.1054 -4.2888 0.0789 
-4.3064 -3.6532 0.0643 
-4.2399 -3.0464 0.2837 
-3.7121 -2.5297 1.3950 
-2.8595 -1.1563 1.9229 
-1.3003 -0.2306 1.2486 
-0.9301 -0.2017 -0.8698 
-2.2283 -1.1299 -1.4633 
-3.2422 -2.7476 -1.6372 
-3.9330 -4.0473 -0.8103 
-4.0338 -4.7511 -0.1734 
-3.7748 -4.7048 -0.3102 
-3.6130 -4.1609 -0.6721 
-3.5459 -3.9885 -1.0711 
-3.2579 -4.3363 -1.1041 
-3.1036 -3.9880 -0.0276 
-3.1769 -3.9376 0.4072 
-3.0650 -4.4619 0.3891 
-2.9693 -4.4459 0.4951 
-3.0912 -4.1196 0.4954 
-3.2197 -3.6630 0.2775 
-3.3154 -3.5715 0.3941 
-3.4255 -3.6437 -0.1975 
-3.4579 -4.1910 -1.0523 
-3.8004 -4.3818 -0.6220 
-4.3814 -4.0084 -0.0156 
-4.7075 -3.2678 0.2613 
-4.4803 -2.6903 0.5754 
-3.6541 -2.4667 1.5361 
-2.6688 -1.3274 1.8103 
-1.1946 -0.3291 1.1522 
-0.9404 -0.1408 -0.8531 
-2.1806 -0.9448 -1.4590 
-3.0601 -2.6836 -1.2213 
-3.6655 -4.1821 -0.7255 
-3.9311 -5.0178 -0.6478 
-4.1439 -4.8595 -0.2613 
-4.4407 -4.3688 0.9592 
-4.3043 -4.3551 0.2069 
-3.6800 -4.5073 -0.4914 
-3.2528 -4.1048 -0.0471 
-3.2773 -4.1875 0.8793 
-3.2009 -4.6300 -0.0815 
-2.9180 -4.4602 0.1260 
-2.9050 -3.7902 0.1620 
-2.8735 -3.4020 -0.1520 
-2.7605 -3.5825 -0.3342 
-2.7712 -3.5705 -0.1050 
-3.2122 -3.9876 -0.0671 
-3.8428 -3.9213 -0.0761 
-4.3501 -3.3495 0.3609 
-4.5951 -2.8640 0.8124 
-3.9955 -2.8063 0.6280 
-2.9539 -2.6461 1.5797 
-2.1797 -1.3828 1.5031 
-0.9874 -0.3443 0.9809 
-0.7936 -0.0730 -0.7210 
-1.8208 -0.9183 -1.2374 
-2.1775 -2.9954 -1.5981 
-2.7915 -4.3821 -0.1333 
-3.9420 -4.6262 -0.2916 
-4.7760 -4.2133 -0.4683 
-5.2223 -4.4319 0.3006 
-4.9430 -4.8982 0.5243 
-4.3875 -4.6376 1.2415 
-4.0957 -4.0675 0.6753 
-3.8573 -4.2096 -0.1209 
-3.8394 -4.4650 -0.4145 
-3.9124 -4.2173 -0.0228 
-3.8771 -3.7621 0.2177 
-3.6793 -3.4404 -0.0913 
-3.4194 -3.4691 -0.0782 
-3.5080 -3.2723 0.5379 
-3.8543 -3.6164 -0.1445 
-3.9353 -3.6769 -0.4557 
-3.9634 -3.0845 0.6650 
-3.9263 -2.8779 1.0049 
-3.2581 -3.0574 0.3629 
-2.3920 -2.6453 1.0017 
-1.8073 -1.1876 1.1445 
-0.8417 -0.2825 0.8350 
-0.5371 -0.0551 -0.4937 
-1.3212 -1.0679 -0.8300 
-1.8696 -2.9578 -1.5417 
-2.8544 -3.8596 -0.6092 
-4.0814 -3.8047 -0.2711 
-4.7015 -3.5013 0.2867 
-4.7975 -3.7739 0.3172 
-4.5222 -4.3657 0.8472 
-4.4156 -4.5792 1.7408 
-4.3541 -4.0994 0.6621 
-4.2759 -3.7634 -0.1166 
-4.4322 -4.1263 0.0905 
-4.5904 -4.0410 0.7225 
-4.6390 -3.7348 0.8188 
-4.3795 -3.2916 0.1883 
-4.1067 -3.1259 0.6066 
-4.0280 -3.0427 1.2711 
-3.9268 -3.3130 0.7853 
-3.5550 -3.4698 -0.6854 
-3.3148 -3.0532 -0.1280 
-3.4285 -2.8876 0.1828 
-3.1600 -2.9627 0.2376 
-2.5489 -2.5027 1.1887 
-1.8919 -1.1680 1.4263 
-0.8432 -0.2757 0.8329 
-0.3261 -0.0434 -0.3083 
-0.8957 -0.9205 -0.5573 
-1.8348 -2.3105 -0.3329 
-3.0762 -2.6967 -0.0702 
-4.0003 -2.8194 0.1700 
-4.4308 -3.0656 0.8070 
-4.1969 -3.2275 1.3712 
-3.8353 -3.4364 2.2657 
-3.8483 -3.8160 1.4608 
-3.7668 -3.4985 0.0206 
-3.8633 -3.1831 0.4437 
-4.3110 -3.5597 0.8056 
-4.3327 -3.6028 0.1395 
-3.9946 -3.4309 0.7706 
-3.7901 -2.8880 1.4341 
-3.6172 -2.4692 1.2989 
-3.2598 -2.6297 0.9819 
-3.0814 -3.2094 1.4194 
-3.1283 -3.2546 0.4172 
-3.2731 -2.6094 0.0433 
-3.4818 -2.3249 0.1209 
-3.1539 -2.7101 0.8582 
-2.4534 -2.4616 1.4883 
-1.6559 -1.2216 1.0256 
-0.6811 -0.2940 0.6528 
-0.1276 -0.0147 -0.1269 
-0.3970 -0.4754 -0.1307 
-1.1324 -1.3922 0.5437 
-2.0907 -1.6825 0.5888 
-2.8669 -1.8175 0.5786 
-3.3364 -2.1845 0.6745 
-3.2207 -2.6736 1.7933 
-2.9082 -2.8028 2.5104 
-2.8131 -2.7513 1.6585 
-2.9191 -2.4288 0.5574 
-3.0234 -2.3733 0.7663 
-3.3088 -2.7934 1.6295 
-3.4267 -2.7837 1.1099 
-3.0884 -2.7508 1.1514 
-2.7632 -2.4556 1.7645 
-2.4744 -1.9432 1.7050 
-2.0584 -1.8940 0.9671 
-2.0473 -2.4586 1.1674 
-2.6311 -2.5225 0.8349 
-3.0492 -1.8499 0.4774 
-3.1355 -1.8170 1.2057 
-2.7226 -2.5078 1.6030 
-2.0718 -2.3506 1.9953 
-1.4730 -1.1476 1.1033 
-0.5991 -0.2974 0.5747 
-0.0126 -0.0049 -0.0168 
-0.0625 -0.1831 0.0460 
-0.2878 -0.6353 0.3427 
-0.6703 -0.8994 0.5353 
-1.0259 -0.9623 0.5479 
-1.1428 -1.2273 0.6223 
-1.2512 -1.9221 1.4420 
-1.2621 -2.0138 1.2971 
-1.1531 -1.8520 1.2813 
-1.2620 -1.6237 1.0807 
-1.2975 -1.5933 0.9959 
-1.3029 -1.9765 1.3378 
-1.3744 -2.1636 1.4824 
-1.4146 -2.0920 1.4652 
-1.3186 -1.8108 1.2531 
-1.0583 -1.5013 1.0813 
-0.8374 -1.3193 0.9174 
-0.8191 -1.4481 0.8599 
-1.1833 -1.5021 1.0689 
-1.4351 -1.1359 0.6363 
-1.2121 -1.4260 0.8943 
-1.1113 -2.0715 1.5587 
-1.1896 -1.9403 1.4024 
-0.9834 -1.0166 0.6195 
-0.4227 -0.2954 0.4031 
0.0122 -0.0050 0.0134 
0.0257 -0.0574 0.0523 
0.0081 -0.1776 0.1482 
-0.0631 -0.3070 0.2777 
-0.1154 -0.3482 0.3363 
-0.0837 -0.4888 0.4626 
-0.1374 -0.8252 0.7804 
-0.2372 -0.8250 0.7703 
-0.2506 -0.7857 0.7606 
-0.2478 -0.7339 0.7354 
-0.2171 -0.7201 0.7228 
-0.1856 -0.8395 0.8134 
-0.2227 -0.9941 0.9490 
-0.3038 -0.9818 0.9484 
-0.3151 -0.8033 0.7901 
-0.2567 -0.6777 0.6886 
-0.2047 -0.6090 0.6094 
-0.1799 -0.5721 0.5555 
-0.2338 -0.6083 0.6039 
-0.2366 -0.4911 0.4999 
-0.1301 -0.6257 0.6094 
-0.1750 -0.9419 0.8743 
-0.3465 -0.8460 0.7737 
-0.3707 -0.4727 0.4436 
-0.1864 -0.1623 0.2609 
0.0000 0.0000 -0.0000 
0.0000 -0.0000 -0.0000 
-0.0000 0.0000 -0.0000 
0.0000 0.0000 0.0000 
0.0000 0.0000 0.0000 
-0.0000 -0.0000 0.0000 
0.0000 -0.0000 0.0000 
-0.0000 -0.0000 -0.0000 
-0.0000 0.0000 -0.0000 
-0.0000 0.0000 -0.0000 
-0.0000 -0.0000 0.0000 
-0.0000 0.0000 0.0000 
0.0000 0.0000 0.0000 
0.0000 -0.0000 0.0000 
0.0000 0.0000 0.0000 
0.0000 -0.0000 0.0000 
-0.0000 0.0000 0.0000 
0.0000 -0.0000 0.0000 
0.0000 -0.0000 0.0000 
0.0000 0.0000 0.0000 
-0.0000 0.0000 0.0000 
0.0000 -0.0000 0.0000 
0.0000 -0.0000 0.0000 
0.0000 0.0000 0.0000 
0.0000 0.0000 0.0000 
-0.0000 0.0000 -0.0000 
0.0000 -0.0000 -0.0000 
-0.0000 0.0000 0.0000 
-0.0000 0.0000 0.0000 
0.0000 -0.0000 0.0000 
-0.0000 -0.0000 0.0000 
0.0000 0.0000 -0.0000 
-0.0000 0.0000 -0.0000 
0.0000 -0.0000 -0.0000 
-0.0000 -0.0000 0.0000 
0.0000 0.0000 -0.0000 
0.0000 -0.0000 -0.0000 
0.0000 0.0000 0.0000 
0.0000 0.0000 0.0000 
0.0000 0.0000 0.0000 
-0.0000 -0.0000 -0.0000 
0.0000 -0.0000 -0.0000 
-0.0000 -0.0000 -0.0000 
0.0000 -0.0000 -0.0000 
0.0000 -0.0000 -0.0000 
0.0000 -0.0000 -0.0000 
-0.0000 0.0000 0.0000 
0.0000 -0.0000 0.0000 
0.0000 -0.0000 0.0000 
0.0000 -0.0000 0.0000 
-0.0000 -0.0000 0.0000 
-0.0000 0.0000 -0.0000 
-0.0000 0.0000 0.0000 
0.0000 -0.0000 -0.0000 
0.0000 -0.0000 -0.0000 
0.0000 -0.0000 0.0000 
0.0000 0.0000 -0.0000 
0.0000 0.0000 -0.0000 
-0.0000 0.0000 -0.0000 
-0.0000 -0.0000 0.0000 
-0.0000 0.0000 -0.0000 
0.0000 0.0000 -0.0000 
0.0000 0.0000 0.0000 
-0.0000 -0.0000 0.0000 
-0.0000 0.0000 0.0000 
-0.0000 0.0000 -0.0000 
0.0000 0.0000 0.0000 
0.0000 0.0000 -0.0000 
0.0000 0.0000 -0.0000 
-0.0000 0.0000 -0.0000 
0.0000 -0.0000 -0.0000 
0.0000 0.0000 0.0000 
0.0000 0.0000 0.0000 
0.0000 -0.0000 -0.0000 
0.0000 0.0000 -0.0000 
0.0000 0.0000 0.0000 
-0.0000 0.0000 -0.0000 
-0.0000 -0.0000 -0.0000 
-0.0000 0.0000 0.0000 
0.0000 0.0000 -0.0000 
-0.0000 -0.0000 -0.0000 
-0.0000 -0.0000 -0.0000 
0.0000 0.0000 -0.0000 
0.0000 0.0000 0.0000 
-0.0000 0.0000 -0.0000 
-0.0000 0.0000 -0.0000 
0.0000 -0.0000 -0.0000 
-0.0000 -0.0000 0.0000 
-0.0000 -0.0000 -0.0000 
-0.0000 -0.0000 -0.0000 
0.0000 -0.0000 -0.0000 
-0.0000 0.0000 0.0000 
-0.0000 0.0000 0.0000 
-0.0000 -0.0000 0.0000 
-0.0000 0.0000 0.0000 
-0.0000 0.0000 -0.0000 
0.0000 -0.0000 -0.0000 
-0.0000 0.0000 0.0000 
0.0000 0.0000 -0.0000 
0.0000 -0.0000 0.0000 
-0.0000 0.0000 -0.0000 
-0.0000 -0.0000 -0.0000 
-0.0000 0.0000 -0.0000 
-0.0000 0.0000 0.0000 
0.0000 -0.0000 0.0000 
0.0000 -0.0000 0.0000 
0.0000 -0.0000 -0.0000 
0.0000 0.0000 0.0000 
0.0000 -0.0000 0.0000 
-0.0000 -0.0000 0.0000 
0.0000 0.0000 -0.0000 
0.0000 0.0000 0.0000 
-0.0000 -0.0000 0.0000 
0.0000 0.0000 -0.0000 
-0.0000 0.0000 -0.0000 
0.0000 -0.0000 0.0000 
-0.0000 0.0000 -0.0000 
0.0000 -0.0000 -0.0000 
0.0000 -0.0000 -0.0000 
0.0000 0.0000 0.0000 
-0.0000 0.0000 0.0000 
0.0000 0.0000 -0.0000 
-0.0000 0.0000 -0.0000 
-0.0000 0.0000 0.0000 
-0.0000 0.0000 -0.0000 
0.0000 -0.0000 0.0000 
0.0000 -0.0000 0.0000 
-0.0000 0.0000 0.0000 
0.0000 0.0000 0.0000 
0.0000 -0.0000 0.0000 
0.0000 -0.0000 0.0000 
0.0000 -0.0000 -0.0000 
-0.0000 -0.0000 -0.0000 
0.0000 -0.0000 -0.0000 
-0.0000 0.0000 0.0000 
0.0000 -0.0000 -0.0000 
0.0000 -0.0000 0.0000 
0.0000 -0.0000 0.0000 
0.0000 0.0000 0.0000 
-0.0000 0.0000 0.0000 
-0.0000 0.0000 0.0000 
-0.0000 -0.0000 0.0000 
0.0000 0.0000 0.0000 
-0.0000 -0.0000 -0.0000 
0.0000 0.0000 0.0000 
0.0000 -0.0000 0.0000 
0.0000 -0.0000 0.0000 
0.0000 -0.0000 0.0000 
0.0000 0.0000 0.0000 
0.0000 0.0000 0.0000 
-0.0000 -0.0000 -0.0000 
0.0000 -0.0000 0.0000 
-0.0000 -0.0000 0.0000 
-0.0000 -0.0000 0.0000 
-0.0000 0.0000 0.0000 
-0.0000 0.0000 0.0000 
0.0000 0.0000 -0.0000 
0.0000 -0.0000 0.0000 
0.0000 -0.0000 0.0000 
-0.0000 -0.0000 -0.0000 
-0.0000 0.0000 -0.0000 
0.0000 0.0000 -0.0000 
0.0000 0.0000 0.0000 
0.0000 -0.0000 0.0000 
0.0000 0.0000 0.0000 
-0.0000 0.0000 -0.0000 
0.0000 0.0000 0.0000 
0.0000 0.0000 0.0000 
0.0000 -0.0000 -0.0000 
-0.0000 0.0000 -0.0000 
-0.0000 -0.0000 0.0000 
0.0000 0.0000 0.0000 
0.0000 0.0000 0.0000 
0.0000 0.0000 0.0000 
0.0000 0.0000 0.0000 
-0.0000 0.0000 0.0000 
0.0000 -0.0000 -0.0000 
-0.0000 -0.0000 0.0000 
0.0000 -0.0000 0.0000 
-0.0000 0.0000 -0.0000 
-0.0000 0.0000 0.0000 
-0.0000 0.0000 -0.0000 
-0.0000 0.0000 0.0000 
0.0000 0.0000 0.0000 
-0.0000 -0.0000 0.0000 
-0.0000 -0.0000 0.0000 
0.0000 -0.0000 0.0000 
0.0000 0.0000 0.0000 
0.0000 0.0000 -0.0000 
0.0000 0.0000 0.0000 
0.0000 0.0000 0.0000 
-0.0000 -0.0000 -0.0000 
0.0000 0.0000 0.0000 
0.0000 0.0000 0.0000 
-0.0000 -0.0000 0.0000 
-0.0000 -0.0000 0.0000 
-0.0000 0.0000 0.0000 
0.0000 0.0000 -0.0000 
-0.0000 0.0000 -0.0000 
0.0000 -0.0000 0.0000 
0.0000 0.0000 -0.0000 
0.0000 0.0000 -0.0000 
-0.0000 -0.0000 0.0000 
0.0000 0.0000 -0.0000 
0.0000 -0.0000 -0.0000 
-0.0000 -0.0000 0.0000 
0.0000 -0.0000 0.0000 
0.0000 -0.0000 0.0000 
0.0000 0.0000 0.0000 
-0.0000 0.0000 0.0000 
-0.0000 0.0000 -0.0000 
0.0000 0.0000 0.0000 
0.0000 -0.0000 0.0000 
0.0000 -0.0000 0.0000 
-0.0000 -0.0000 0.0000 
-0.0000 -0.0000 -0.0000 
-0.0000 -0.0000 -0.0000 
0.0000 -0.0000 0.0000 
0.0000 0.0000 0.0000 
-0.0000 -0.0000 0.0000 
0.0000 -0.0000 -0.0000 
0.0000 -0.0000 0.0000 
-0.0000 -0.0000 -0.0000 
-0.0000 -0.0000 -0.0000 
0.0000 -0.0000 0.0000 
0.0000 -0.0000 -0.0000 
-0.0000 -0.0000 -0.0000 
0.0000 0.0000 -0.0000 
-0.0000 0.0000 0.0000 
0.0000 -0.0000 -0.0000 
0.0000 0.0000 -0.0000 
0.0000 0.0000 0.0000 
0.0000 -0.0000 -0.0000 
0.0000 -0.0000 -0.0000 
-0.0000 -0.0000 -0.0000 
0.0000 -0.0000 -0.0000 
0.0000 0.0000 0.0000 
-0.0000 -0.0000 0.0000 
-0.0000 -0.0000 0.0000 
0.0000 -0.0000 -0.0000 
-0.0000 -0.0000 0.0000 
-0.0000 0.0000 -0.0000 
-0.0000 0.0000 -0.0000 
0.0000 -0.0000 0.0000 
-0.0000 0.0000 0.0000 
0.0000 0.0000 -0.0000 
-0.0000 0.0000 -0.0000 
-0.0000 0.0000 -0.0000 
-0.0000 0.0000 0.0000 
-0.0000 0.0000 -0.0000 
-0.0000 -0.0000 -0.0000 
0.0000 -0.0000 -0.0000 
-0.0000 -0.0000 -0.0000 
-0.0000 0.0000 0.0000 
-0.0000 0.0000 -0.0000 
-0.0000 0.0000 -0.0000 
0.0000 -0.0000 0.0000 
-0.0000 -0.0000 0.0000 
-0.0000 -0.0000 -0.0000 
-0.0000 -0.0000 -0.0000 
0.0000 -0.0000 -0.0000 
-0.0000 0.0000 -0.0000 
-0.0000 0.0000 0.0000 
-0.0000 0.0000 -0.0000 
0.0000 0.0000 -0.0000 
-0.0000 -0.0000 0.0000 
-0.0000 -0.0000 -0.0000 
0.0000 0.0000 -0.0000 
-0.0000 0.0000 -0.0000 
0.0000 -0.0000 0.0000 
0.0000 -0.0000 -0.0000 
-0.0000 0.0000 -0.0000 
0.0000 0.0000 -0.0000 
-0.0000 0.0000 -0.0000 
-0.0000 -0.0000 0.0000 
-0.0000 -0.0000 0.0000 
0.0000 -0.0000 -0.0000 
-0.0000 -0.0000 0.0000 
-0.0000 -0.0000 -0.0000 
-0.0000 0.0000 -0.0000 
-0.0000 -0.0000 0.0000 
0.0000 -0.0000 0.0000 
-0.0000 -0.0000 0.0000 
-0.0000 -0.0000 -0.0000 
-0.0000 -0.0000 -0.0000 
0.0000 -0.0000 0.0000 
-0.0000 0.0000 0.0000 
-0.0000 -0.0000 0.0000 
-0.0000 0.0000 -0.0000 
0.0000 0.0000 -0.0000 
0.0000 0.0000 0.0000 
-0.0000 0.0000 0.0000 
0.0000 0.0000 -0.0000 
-0.0000 0.0000 -0.0000 
-0.0000 0.0000 0.0000 
0.0000 0.0000 -0.0000 
0.0000 0.0000 -0.0000 
0.0000 0.0000 -0.0000 
0.0000 -0.0000 -0.0000 
-0.0000 -0.0000 -0.0000 
0.0000 -0.0000 0.0000 
-0.0000 -0.0000 0.0000 
0.0000 -0.0000 0.0000 
0.0000 -0.0000 0.0000 
0.0000 0.0000 -0.0000 
0.0000 0.0000 0.0000 
0.0000 0.0000 0.0000 
0.0000 -0.0000 -0.0000 
0.0000 0.0000 -0.0000 
0.0000 0.0000 0.0000 
-0.0000 -0.0000 0.0000 
-0.0000 0.0000 -0.0000 
0.0000 0.0000 0.0000 
-0.0000 -0.0000 -0.0000 
-0.0000 0.0000 -0.0000 
0.0000 0.0000 0.0000 
0.0000 0.0000 0.0000 
0.0000 -0.0000 -0.0000 
-0.0000 -0.0000 -0.0000 
-0.0000 -0.0000 -0.0000 
-0.0000 0.0000 0.0000 
0.0000 -0.0000 0.0000 
0.0000 -0.0000 0.0000 
0.0000 -0.0000 0.0000 
-0.0000 -0.0000 0.0000 
0.0000 -0.0000 0.0000 
-0.0000 0.0000 0.0000 
0.0000 0.0000 0.0000 
0.0000 0.0000 0.0000 
-0.0000 0.0000 -0.0000 
0.0000 -0.0000 -0.0000 
0.0000 0.0000 -0.0000 
0.0000 0.0000 -0.0000 
0.0000 0.0000 0.0000 
-0.0000 0.0000 -0.0000 
-0.0000 0.0000 0.0000 
0.0000 0.0000 0.0000 
0.0000 0.0000 -0.0000 
0.0000 -0.0000 0.0000 
0.0000 0.0000 -0.0000 
-0.0000 -0.0000 -0.0000 
0.0000 -0.0000 -0.0000 
0.0000 -0.0000 0.0000 
-0.0000 -0.0000 0.0000 
-0.0000 -0.0000 -0.0000 
0.0000 -0.0000 -0.0000 
-0.0000 0.0000 0.0000 
-0.0000 -0.0000 0.0000 
0.0000 -0.0000 0.0000 
-0.0000 -0.0000 -0.0000 
-0.0000 -0.0000 0.0000 
0.0000 0.0000 -0.0000 
0.0000 0.0000 -0.0000 
-0.0000 0.0000 0.0000 
-0.0000 -0.0000 0.0000 
0.0000 -0.0000 -0.0000 
0.0000 0.0000 -0.0000 
0.0000 0.0000 -0.0000 
0.0000 0.0000 -0.0000 
0.0000 -0.0000 -0.0000 
0.0000 0.0000 -0.0000 
0.0000 -0.0000 0.0000 
-0.0000 0.0000 -0.0000 
0.0000 0.0000 0.0000 
-0.0000 0.0000 0.0000 
-0.0000 -0.0000 0.0000 
-0.0000 -0.0000 -0.0000 
0.0000 -0.0000 -0.0000 
-0.0000 -0.0000 0.0000 
-0.0000 0.0000 0.0000 
0.0000 -0.0000 -0.0000 
-0.0000 0.0000 -0.0000 
-0.0000 0.0000 -0.0000 
-0.0000 -0.0000 -0.0000 
-0.0000 -0.0000 -0.0000 
0.0000 0.0000 0.0000 
-0.0000 -0.0000 -0.0000 
0.0000 -0.0000 -0.0000 
-0.0000 0.0000 -0.0000 
-0.0000 0.0000 -0.0000 
-0.0000 -0.0000 -0.0000 
-0.0000 -0.0000 -0.0000 
0.0000 -0.0000 -0.0000 
-0.0000 -0.0000 -0.0000 
-0.0000 -0.0000 0.0000 
-0.0000 0.0000 0.0000 
0.0000 0.0000 0.0000 
-0.0000 -0.0000 0.0000 
-0.0000 -0.0000 -0.0000 
-0.0000 0.0000 -0.0000 
-0.0000 0.0000 -0.0000 
-0.0000 0.0000 -0.0000 
0.0000 0.0000 0.0000 
-0.0000 -0.0000 -0.0000 
-0.0000 0.0000 -0.0000 
0.0000 0.0000 -0.0000 
-0.0000 -0.0000 -0.0000 
0.0000 -0.0000 0.0000 
0.0000 0.0000 0.0000 
0.0000 -0.0000 0.0000 
0.0000 -0.0000 0.0000 
-0.0000 -0.0000 0.0000 
-0.0000 0.0000 -0.0000 
0.0000 -0.0000 -0.0000 
-0.0000 -0.0000 -0.0000 
-0.0000 -0.0000 -0.0000 
0.0000 -0.0000 -0.0000 
0.0000 0.0000 0.0000 
-0.0000 -0.0000 0.0000 
-0.0000 0.0000 0.0000 
-0.0000 0.0000 -0.0000 
-0.0000 0.0000 -0.0000 
-0.0000 0.0000 0.0000 
0.0000 0.0000 0.0000 
0.0000 0.0000 -0.0000 
-0.0000 -0.0000 -0.0000 
-0.0000 0.0000 0.0000 
0.0000 0.0000 -0.0000 
-0.0000 0.0000 -0.0000 
0.0000 -0.0000 -0.0000 
-0.0000 -0.0000 -0.0000 
-0.0000 -0.0000 -0.0000 
0.0000 -0.0000 -0.0000 
-0.0000 -0.0000 -0.0000 
-0.0000 -0.0000 -0.0000 
-0.0000 0.0000 0.0000 
0.0000 -0.0000 -0.0000 
-0.0000 0.0000 0.0000 
0.0000 0.0000 0.0000 
-0.0000 -0.0000 0.0000 
-0.0000 0.0000 0.0000 
0.0000 -0.0000 -0.0000 
0.0000 -0.0000 0.0000 
-0.0000 0.0000 0.0000 
-0.0000 0.0000 -0.0000 
0.0000 0.0000 -0.0000 
0.0000 -0.0000 0.0000 
-0.0000 -0.0000 0.0000 
0.0000 -0.0000 0.0000 
0.0000 0.0000 0.0000 
0.0000 0.0000 0.0000 
0.0000 0.0000 0.0000 
0.0000 -0.0000 -0.0000 
-0.0000 -0.0000 -0.0000 
-0.0000 -0.0000 0.0000 
0.0000 0.0000 -0.0000 
-0.0000 0.0000 0.0000 
-0.0000 0.0000 0.0000 
0.0000 -0.0000 0.0000 
0.0000 -0.0000 0.0000 
0.0000 0.0000 0.0000 
-0.0000 0.0000 0.0000 
0.0000 -0.0000 0.0000 
0.0000 -0.0000 0.0000 
0.0000 -0.0000 0.0000 
-0.0000 0.0000 -0.0000 
-0.0000 -0.0000 -0.0000 
-0.0000 0.0000 0.0000 
-0.0000 0.0000 0.0000 
0.0000 0.0000 0.0000 
0.0000 0.0000 0.0000 
-0.0000 0.0000 0.0000 
-0.0000 0.0000 -0.0000 
-0.0000 -0.0000 -0.0000 
0.0000 0.0000 -0.0000 
-0.0000 -0.0000 0.0000 
0.0000 0.0000 0.0000 
0.0000 0.0000 -0.0000 
-0.0000 0.0000 -0.0000 
-0.0000 0.0000 0.0000 
0.0000 -0.0000 0.0000 
-0.0000 -0.0000 0.0000 
-0.0000 0.0000 0.0000 
-0.0000 0.0000 0.0000 
0.0000 0.0000 -0.0000 
-0.0000 -0.0000 -0.0000 
-0.0000 -0.0000 -0.0000 
-0.0000 -0.0000 0.0000 
0.0000 0.0000 -0.0000 
0.0000 -0.0000 0.0000 
-0.0000 -0.0000 -0.0000 
0.0000 -0.0000 -0.0000 
-0.0000 0.0000 -0.0000 
0.0000 0.0000 -0.0000 
-0.0000 0.0000 0.0000 
-0.0000 0.0000 0.0000 
-0.0000 0.0000 0.0000 
-0.0000 -0.0000 0.0000 
-0.0000 0.0000 -0.0000 
-0.0000 0.0000 -0.0000 
-0.0000 0.0000 -0.0000 
0.0000 -0.0000 -0.0000 
0.0000 -0.0000 0.0000 
-0.0000 -0.0000 -0.0000 
-0.0000 0.0000 -0.0000 
-0.0000 -0.0000 -0.0000 
-0.0000 0.0000 -0.0000 
-0.0000 -0.0000 -0.0000 
-0.0000 -0.0000 -0.0000 
-0.0000 -0.0000 -0.0000 
-0.0000 0.0000 -0.0000 
-0.0000 0.0000 0.0000 
-0.0000 0.0000 0.0000 
-0.0000 -0.0000 0.0000 
-0.0000 -0.0000 0.0000 
-0.0000 0.0000 0.0000 
-0.0000 0.0000 -0.0000 
0.0000 -0.0000 -0.0000 
-0.0000 -0.0000 0.0000 
0.0000 -0.0000 -0.0000 
-0.0000 -0.0000 -0.0000 
-0.0000 -0.0000 0.0000 
0.0000 0.0000 0.0000 
-0.0000 -0.0000 0.0000 
-0.0000 -0.0000 0.0000 
-0.0000 -0.0000 -0.0000 
0.0000 -0.0000 -0.0000 
-0.0000 -0.0000 0.0000 
0.0000 0.0000 0.0000 
0.0000 -0.0000 -0.0000 
0.0000 -0.0000 -0.0000 
-0.0000 -0.0000 0.0000 
-0.0000 -0.0000 -0.0000 
-0.0000 -0.0000 0.0000 
0.0000 -0.0000 -0.0000 
0.0000 -0.0000 0.0000 
-0.0000 -0.0000 0.0000 
-0.0000 0.0000 -0.0000 
0.0000 0.0000 0.0000 
-0.0000 -0.0000 -0.0000 
0.0000 -0.0000 -0.0000 
-0.0000 0.0000 -0.0000 
-0.0000 -0.0000 0.0000 
-0.0000 -0.0000 -0.0000 
0.0000 -0.0000 -0.0000 
-0.0000 -0.0000 -0.0000 
0.0000 0.0000 -0.0000 
0.0000 0.0000 -0.0000 
-0.0000 -0.0000 -0.0000 
-0.0000 0.0000 -0.0000 
-0.0000 -0.0000 -0.0000 
0.0000 -0.0000 -0.0000 
0.0000 -0.0000 0.0000 
-0.0000 -0.0000 -0.0000 
-0.0000 -0.0000 0.0000 
-0.0000 -0.0000 -0.0000 
0.0000 0.0000 0.0000 
-0.0000 -0.0000 0.0000 
-0.0000 0.0000 -0.0000 
0.0000 -0.0000 0.0000 
-0.0000 -0.0000 -0.0000 
0.0000 -0.0000 0.0000 
0.0000 0.0000 0.0000 
-0.0000 -0.0000 0.0000 
-0.0000 -0.0000 -0.0000 
-0.0000 0.0000 -0.0000 
-0.0000 -0.0000 -0.0000 
0.0000 0.0000 -0.0000 
-0.0000 -0.0000 0.0000 
0.0000 -0.0000 0.0000 
0.0000 -0.0000 0.0000 
-0.0000 -0.0000 -0.0000 
-0.0000 -0.0000 -0.0000 
-0.0000 -0.0000 -0.0000 
0.0000 0.0000 -0.0000 
-0.0000 -0.0000 -0.0000 
0.0000 -0.0000 0.0000 
-0.0000 0.0000 0.0000 
-0.0000 -0.0000 0.0000 
-0.0000 0.0000 0.0000 
0.0000 -0.0000 0.0000 
0.0000 0.0000 0.0000 
-0.0000 -0.0000 0.0000 
-0.0000 0.0000 0.0000 
-0.0000 0.0000 0.0000 
-0.0000 -0.0000 -0.0000 
0.0000 -0.0000 -0.0000 
0.0000 0.0000 -0.0000 
-0.0000 0.0000 -0.0000 
-0.0000 -0.0000 -0.0000 
-0.0000 -0.0000 -0.0000 
-0.0000 0.0000 -0.0000 
-0.0000 -0.0000 -0.0000 
-0.0000 -0.0000 0.0000 
0.0000 -0.0000 0.0000 
0.0000 -0.0000 0.0000 
-0.0000 -0.0000 0.0000 
-0.0000 -0.0000 -0.0000 
0.0000 0.0000 -0.0000 
0.0000 0.0000 -0.0000 
-0.0000 -0.0000 -0.0000 
0.0000 0.0000 0.0000 
-0.0000 0.0000 0.0000 
-0.0000 0.0000 -0.0000 
-0.0000 0.0000 -0.0000 
0.0000 0.0000 -0.0000 
0.0000 -0.0000 -0.0000 
0.0000 0.0000 -0.0000 
0.0000 0.0000 0.0000 
-0.0000 0.0000 0.0000 
-0.0000 -0.0000 -0.0000 
0.0000 -0.0000 -0.0000 
0.0000 0.0000 -0.0000 
0.0000 0.0000 -0.0000 
-0.0000 -0.0000 -0.0000 
0.0000 -0.0000 0.0000 
-0.0000 -0.0000 0.0000 
-0.0000 -0.0000 -0.0000 
-0.0000 -0.0000 0.0000 
-0.0000 0.0000 -0.0000 
0.0000 0.0000 -0.0000 
0.0000 0.0000 0.0000 
-0.0000 0.0000 -0.0000 
-0.0000 0.0000 -0.0000 
-0.0000 -0.0000 0.0000 
-0.0000 -0.0000 0.0000 
0.0000 0.0000 0.0000 
0.0000 0.0000 -0.0000 
0.0000 -0.0000 -0.0000 
-0.0000 0.0000 -0.0000 
0.0000 0.0000 -0.0000 
-0.0000 0.0000 -0.0000 
-0.0000 0.0000 -0.0000 
0.0000 0.0000 0.0000 
0.0000 0.0000 -0.0000 
-0.0000 -0.0000 0.0000 
0.0000 -0.0000 0.0000 
-0.0000 0.0000 0.0000 
0.0000 -0.0000 0.0000 
0.0000 0.0000 -0.0000 
0.0000 0.0000 0.0000 
0.0000 -0.0000 0.0000 
-0.0000 -0.0000 0.0000 
0.0000 -0.0000 -0.0000 
0.0000 0.0000 -0.0000 
0.0000 -0.0000 0.0000 
0.0000 -0.0000 -0.0000 
-0.0000 0.0000 -0.0000 
-0.0000 0.0000 -0.0000 
-0.0000 0.0000 -0.0000 
-0.0000 -0.0000 -0.0000 
-0.0000 0.0000 -0.0000 
0.0000 0.0000 0.0000 
-0.0000 0.0000 -0.0000 
-0.0000 0.0000 -0.0000 
-0.0000 -0.0000 -0.0000 
0.0000 -0.0000 -0.0000 
-0.0000 0.0000 0.0000 
0.0000 0.0000 -0.0000 
-0.0000 0.0000 -0.0000 
-0.0000 0.0000 -0.0000 
0.0000 -0.0000 -0.0000 
0.0000 0.0000 -0.0000 
-0.0000 -0.0000 -0.0000 
-0.0000 -0.0000 -0.0000 
-0.0000 -0.0000 0.0000 
-0.0000 -0.0000 0.0000 
0.0000 0.0000 0.0000 
0.0000 0.0000 -0.0000 
0.0000 -0.0000 -0.0000 
-0.0000 -0.0000 0.0000 
0.0000 -0.0000 -0.0000 
-0.0000 0.0000 0.0000 
-0.0000 0.0000 -0.0000 
0.0000 -0.0000 -0.0000 
0.0000 -0.0000 0.0000 
0.0000 0.0000 -0.0000 
0.0000 0.0000 0.0000 
-0.0000 0.0000 0.0000 
-0.0000 -0.0000 -0.0000 
-0.0000 -0.0000 0.0000 
0.0000 -0.0000 -0.0000 
-0.0000 -0.0000 0.0000 
-0.0000 -0.0000 -0.0000 
-0.0000 -0.0000 -0.0000 
-0.0000 0.0000 -0.0000 
0.0000 -0.0000 -0.0000 
0.0000 -0.0000 -0.0000 
-0.0000 0.0000 0.0000 
-0.0000 0.0000 0.0000 
0.0000 0.0000 -0.0000 
-0.0000 -0.0000 -0.0000 
-0.0000 0.0000 -0.0000 
0.0000 0.0000 -0.0000 
0.0000 0.0000 -0.0000 
-0.0000 -0.0000 0.0000 
0.0000 -0.0000 -0.0000 
0.0000 -0.0000 0.0000 
-0.0000 0.0000 -0.0000 
0.0000 -0.0000 -0.0000 
-0.0000 0.0000 0.0000 
-0.0000 0.0000 0.0000 
-0.0000 0.0000 0.0000 
0.0000 0.0000 -0.0000 
-0.0000 0.0000 0.0000 
0.0000 0.0000 0.0000 
-0.0000 -0.0000 -0.0000 
-0.0000 0.0000 0.0000 
-0.0000 0.0000 0.0000 
-0.0000 0.0000 -0.0000 
0.0000 0.0000 -0.0000 
0.0000 0.0000 -0.0000 
0.0000 -0.0000 -0.0000 
0.0000 -0.0000 0.0000 
0.0000 0.0000 0.0000 
0.0000 -0.0000 0.0000 
0.0000 -0.0000 -0.0000 
0.0000 -0.0000 -0.0000 
-0.0000 -0.0000 -0.0000 
-0.0000 -0.0000 -0.0000 
-0.0000 -0.0000 0.0000 
0.0000 0.0000 -0.0000 
0.0000 0.0000 -0.0000 
-0.0000 -0.0000 0.0000 
0.0000 0.0000 0.0000 
0.0000 0.0000 -0.0000 
0.0000 0.0000 -0.0000 
0.0000 0.0000 -0.0000 
0.0000 0.0000 -0.0000 
0.0000 -0.0000 -0.0000 
-0.0000 0.0000 0.0000 
0.0000 -0.0000 -0.0000 
-0.0000 -0.0000 -0.0000 
-0.0000 0.0000 0.0000 
-0.0000 0.0000 -0.0000 
0.0000 -0.0000 0.0000 
-0.0000 -0.0000 0.0000 
0.0000 -0.0000 -0.0000 
0.0000 0.0000 0.0000 
-0.0000 0.0000 -0.0000 
-0.0000 0.0000 -0.0000 
-0.0000 -0.0000 0.0000 
-0.0000 -0.0000 -0.0000 
0.0000 0.0000 -0.0000 
-0.0000 0.0000 0.0000 
-0.0000 -0.0000 0.0000 
0.0000 0.0000 -0.0000 
-0.0000 0.0000 -0.0000 
-0.0000 0.0000 0.0000 
0.0000 0.0000 0.0000 
0.0000 0.0000 0.0000 
0.0000 -0.0000 0.0000 
-0.0000 0.0000 0.0000 
-0.0000 -0.0000 0.0000 
0.0000 -0.0000 -0.0000 
-0.0000 0.0000 -0.0000 
-0.0000 0.0000 0.0000 
0.0000 -0.0000 -0.0000 
0.0000 -0.0000 -0.0000 
-0.0000 0.0000 0.0000 
0.0000 0.0000 -0.0000 
-0.0000 0.0000 -0.0000 
0.0000 0.0000 -0.0000 
0.0000 0.0000 -0.0000 
-0.0000 0.0000 -0.0000 
-0.0000 0.0000 -0.0000 
-0.0000 0.0000 -0.0000 
-0.0000 0.0000 0.0000 
0.0000 0.0000 0.0000 
0.0000 -0.0000 0.0000 
-0.0000 -0.0000 0.0000 
0.0000 0.0000 -0.0000 
0.0000 0.0000 0.0000 
0.0000 0.0000 -0.0000 
-0.0000 -0.0000 -0.0000 
0.0000 -0.0000 -0.0000 
-0.0000 -0.0000 0.0000 
-0.0000 0.0000 0.0000 
-0.0000 0.0000 -0.0000 
0.0000 -0.0000 0.0000 
-0.0000 0.0000 -0.0000 
-0.0000 0.0000 0.0000 
-0.0000 0.0000 -0.0000 
-0.0000 -0.0000 -0.0000 
-0.0000 -0.0000 -0.0000 
0.0000 0.0000 0.0000 
0.0000 0.0000 -0.0000 
0.0000 0.0000 -0.0000 
0.0000 0.0000 -0.0000 
0.0000 -0.0000 -0.0000 
0.0000 0.0000 0.0000 
0.0000 -0.0000 0.0000 
0.0000 0.0000 0.0000 
-0.0000 0.0000 0.0000 
0.0000 -0.0000 0.0000 
0.0000 0.0000 0.0000 
-0.0000 -0.0000 0.0000 
0.0000 -0.0000 -0.0000 
-0.0000 -0.0000 0.0000 
-0.0000 -0.0000 -0.0000 
0.0000 -0.0000 -0.0000 
-0.0000 -0.0000 -0.0000 
-0.0000 -0.0000 0.0000 
-0.0000 0.0000 -0.0000 
0.0000 -0.0000 -0.0000 
0.0000 -0.0000 -0.0000 
-0.0000 -0.0000 0.0000 
0.0000 -0.0000 -0.0000 
-0.0000 -0.0000 -0.0000 
-0.0000 -0.0000 -0.0000 
-0.0000 -0.0000 0.0000 
-0.0000 0.0000 0.0000 
0.0000 -0.0000 -0.0000 
-0.0000 -0.0000 -0.0000 
-0.0000 0.0000 -0.0000 
0.0000 0.0000 -0.0000 
-0.0000 -0.0000 -0.0000 
0.0000 -0.0000 -0.0000 
-0.0000 0.0000 -0.0000 
0.0000 0.0000 -0.0000 
0.0000 -0.0000 0.0000 
-0.0000 -0.0000 0.0000 
-0.0000 -0.0000 -0.0000 
-0.0000 0.0000 -0.0000 
0.0000 -0.0000 -0.0000 
-0.0000 -0.0000 -0.0000 
0.0000 -0.0000 -0.0000 
-0.0000 -0.0000 0.0000 
-0.0000 0.0000 -0.0000 
0.0000 0.0000 -0.0000 
0.0000 0.0000 -0.0000 
-0.0000 0.0000 0.0000 
-0.0000 -0.0000 -0.0000 
0.0000 -0.0000 0.0000 
0.0000 0.0000 0.0000 
0.0000 -0.0000 -0.0000 
0.0000 0.0000 0.0000 
-0.0000 0.0000 -0.0000 
-0.0000 -0.0000 0.0000 
-0.0000 0.0000 -0.0000 
0.0000 0.0000 -0.0000 
0.0000 -0.0000 -0.0000 
-0.0000 -0.0000 0.0000 
-0.0000 -0.0000 -0.0000 
0.0000 -0.0000 -0.0000 
-0.0000 0.0000 0.0000 
0.0000 0.0000 0.0000 
-0.0000 -0.0000 -0.0000 
-0.0000 0.0000 -0.0000 
0.0000 0.0000 -0.0000 
-0.0000 0.0000 -0.0000 
0.0000 0.0000 0.0000 
0.0000 -0.0000 0.0000 
-0.0000 -0.0000 -0.0000 
-0.0000 0.0000 0.0000 
0.0000 0.0000 0.0000 
0.0000 0.0000 -0.0000 
-0.0000 -0.0000 -0.0000 
0.0000 0.0000 0.0000 
-0.0000 -0.0000 0.0000 
0.0000 0.0000 0.0000 
0.0000 0.0000 0.0000 
0.0000 0.0000 0.0000 
0.0000 -0.0000 -0.0000 
0.0000 0.0000 0.0000 
0.0000 -0.0000 0.0000 
-0.0000 -0.0000 0.0000 
-0.0000 -0.0000 -0.0000 
-0.0000 0.0000 0.0000 
0.0000 -0.0000 -0.0000 
0.0000 0.0000 0.0000 
-0.0000 -0.0000 0.0000 
0.0000 -0.0000 -0.0000 
-0.0000 0.0000 0.0000 
0.0000 -0.0000 0.0000 
-0.0000 -0.0000 -0.0000 
0.0000 -0.0000 0.0000 
0.0000 -0.0000 0.0000 
0.0000 -0.0000 -0.0000 
-0.0000 -0.0000 0.0000 
0.0000 0.0000 -0.0000 
-0.0000 0.0000 -0.0000 
0.0000 -0.0000 0.0000 
0.0000 -0.0000 0.0000 
-0.0000 0.0000 0.0000 
-0.0000 0.0000 0.0000 
-0.0000 -0.0000 0.0000 
0.0000 0.0000 0.0000 
0.0000 -0.0000 -0.0000 
0.0000 0.0000 0.0000 
0.0000 0.0000 -0.0000 
0.0000 0.0000 -0.0000 
-0.0000 0.0000 -0.0000 
-0.0000 0.0000 0.0000 
-0.0000 -0.0000 0.0000 
0.0000 0.0000 0.0000 
0.0000 -0.0000 -0.0000 
0.0000 0.0000 -0.0000 
-0.0000 -0.0000 0.0000 
0.0000 0.0000 0.0000 
0.0000 -0.0000 -0.0000 
-0.0000 -0.0000 0.0000 
0.0000 -0.0000 0.0000 
0.0000 0.0000 0.0000 
0.0000 -0.0000 0.0000 
-0.0000 -0.0000 0.0000 
-0.0000 -0.0000 0.0000 
0.0000 -0.0000 0.0000 
0.0000 -0.0000 -0.0000 
0.0000 0.0000 0.0000 
-0.0000 0.0000 -0.0000 
-0.0000 0.0000 0.0000 
-0.0000 0.0000 -0.0000 
0.0000 0.0000 0.0000 
0.0000 -0.0000 0.0000 
0.0000 -0.0000 0.0000 
0.0000 -0.0000 -0.0000 
-0.0000 0.0000 0.0000 
0.0000 -0.0000 -0.0000 
0.0000 0.0000 0.0000 
0.0000 0.0000 -0.0000 
0.0000 -0.0000 -0.0000 
-0.0000 0.0000 -0.0000 
-0.0000 0.0000 0.0000 
-0.0000 -0.0000 0.0000 
-0.0000 -0.0000 -0.0000 
-0.0000 0.0000 -0.0000 
-0.0000 0.0000 -0.0000 
0.0000 0.0000 -0.0000 
0.0000 0.0000 0.0000 
-0.0000 0.0000 0.0000 
0.0000 0.0000 0.0000 
0.0000 -0.0000 0.0000 
-0.0000 0.0000 0.0000 
0.0000 -0.0000 -0.0000 
0.0000 -0.0000 -0.0000 
-0.0000 0.0000 0.0000 
0.0000 -0.0000 0.0000 
-0.0000 0.0000 0.0000 
-0.0000 -0.0000 0.0000 
-0.0000 -0.0000 -0.0000 
0.0000 -0.0000 0.0000 
0.0000 -0.0000 0.0000 
-0.0000 0.0000 0.0000 
-0.0000 -0.0000 0.0000 
-0.0000 -0.0000 0.0000 
-0.0000 -0.0000 0.0000 
0.0000 -0.0000 0.0000 
-0.0000 0.0000 -0.0000 
0.0000 -0.0000 -0.0000 
0.0000 -0.0000 0.0000 
-0.0000 -0.0000 -0.0000 
-0.0000 0.0000 -0.0000 
-0.0000 0.0000 -0.0000 
0.0000 -0.0000 0.0000 
0.0000 0.0000 0.0000 
-0.0000 0.0000 -0.0000 
0.0000 0.0000 -0.0000 
-0.0000 0.0000 -0.0000 
0.0000 -0.0000 -0.0000 
0.0000 -0.0000 -0.0000 
-0.0000 -0.0000 0.0000 
-0.0000 -0.0000 0.0000 
-0.0000 -0.0000 0.0000 
0.0000 -0.0000 0.0000 
0.0000 -0.0000 0.0000 
0.0000 -0.0000 0.0000 
-0.0000 -0.0000 0.0000 
-0.0000 -0.0000 0.0000 
-0.0000 -0.0000 0.0000 
-0.0000 -0.0000 -0.0000 
-0.0000 -0.0000 -0.0000 
0.0000 -0.0000 0.0000 
-0.0000 0.0000 0.0000 
-0.0000 0.0000 -0.0000 
0.0000 -0.0000 -0.0000 
-0.0000 -0.0000 0.0000 
0.0000 -0.0000 -0.0000 
-0.0000 0.0000 -0.0000 
0.0000 0.0000 0.0000 
0.0000 -0.0000 -0.0000 
0.0000 -0.0000 -0.0000 
0.0000 0.0000 0.0000 
-0.0000 -0.0000 -0.0000 
0.0000 -0.0000 -0.0000 
-0.0000 0.0000 -0.0000 
-0.0000 -0.0000 -0.0000 
-0.0000 -0.0000 0.0000 
-0.0000 -0.0000 -0.0000 
0.0000 0.0000 0.0000 
-0.0000 0.0000 0.0000 
0.0000 -0.0000 0.0000 
0.0000 -0.0000 -0.0000 
-0.0000 -0.0000 -0.0000 
0.0000 0.0000 -0.0000 
0.0000 0.0000 -0.0000 
-0.0000 -0.0000 -0.0000 
-0.0000 0.0000 -0.0000 
-0.0000 0.0000 -0.0000 
0.0000 0.0000 -0.0000 
0.0000 0.0000 0.0000 
0.0000 0.0000 0.0000 
0.0000 0.0000 -0.0000 
0.0000 -0.0000 -0.0000 
-0.0000 0.0000 0.0000 
-0.0000 0.0000 -0.0000 
-0.0000 -0.0000 -0.0000 
0.0000 0.0000 0.0000 
0.0000 -0.0000 0.0000 
0.0000 0.0000 0.0000 
-0.0000 0.0000 -0.0000 
0.0000 0.0000 -0.0000 
-0.0000 -0.0000 0.0000 
-0.0000 -0.0000 -0.0000 
0.0000 -0.0000 0.0000 
-0.0000 0.0000 0.0000 
0.0000 0.0000 -0.0000 
0.0000 -0.0000 0.0000 
-0.0000 0.0000 -0.0000 
0.0000 0.0000 -0.0000 
-0.0000 -0.0000 0.0000 
0.0000 -0.0000 -0.0000 
-0.0000 -0.0000 0.0000 
0.0000 -0.0000 0.0000 
0.0000 -0.0000 0.0000 
-0.0000 -0.0000 0.0000 
0.0000 -0.0000 0.0000 
0.0000 0.0000 -0.0000 
-0.0000 -0.0000 -0.0000 
0.0000 0.0000 0.0000 
-0.0000 0.0000 -0.0000 
0.0000 0.0000 -0.0000 
0.0000 0.0000 -0.0000 
-0.0000 0.0000 0.0000 
-0.0000 0.0000 0.0000 
0.0000 0.0000 0.0000 
-0.0000 0.0000 -0.0000 
0.0000 0.0000 0.0000 
0.0000 0.0000 0.0000 
0.0000 0.0000 -0.0000 
-0.0000 0.0000 -0.0000 
-0.0000 0.0000 0.0000 
0.0000 0.0000 -0.0000 
-0.0000 0.0000 -0.0000 
-0.0000 -0.0000 0.0000 
-0.0000 -0.0000 -0.0000 
0.0000 -0.0000 -0.0000 
-0.0000 0.0000 -0.0000 
0.0000 0.0000 -0.0000 
-0.0000 0.0000 0.0000 
0.0000 0.0000 -0.0000 
0.0000 0.0000 0.0000 
-0.0000 -0.0000 -0.0000 
-0.0000 -0.0000 -0.0000 
0.0000 0.0000 -0.0000 
-0.0000 0.0000 0.0000 
-0.0000 -0.0000 0.0000 
-0.0000 0.0000 -0.0000 
0.0000 0.0000 -0.0000 
-0.0000 0.0000 0.0000 
-0.0000 -0.0000 0.0000 
-0.0000 0.0000 0.0000 
0.0000 0.0000 -0.0000 
0.0000 0.0000 -0.0000 
-0.0000 0.0000 -0.0000 
0.0000 0.0000 -0.0000 
-0.0000 -0.0000 0.0000 
0.0000 -0.0000 -0.0000 
-0.0000 -0.0000 -0.0000 
-0.0000 -0.0000 0.0000 
-0.0000 -0.0000 0.0000 
0.0000 0.0000 -0.0000 
0.0000 -0.0000 -0.0000 
-0.0000 -0.0000 -0.0000 
-0.0000 -0.0000 -0.0000 
-0.0000 -0.0000 0.0000 
-0.0000 -0.0000 -0.0000 
-0.0000 0.0000 -0.0000 
0.0000 0.0000 0.0000 
0.0000 0.0000 0.0000 
-0.0000 0.0000 0.0000 
0.0000 0.0000 -0.0000 
0.0000 0.0000 0.0000 
0.0000 0.0000 0.0000 
-0.0000 0.0000 0.0000 
0.0000 -0.0000 -0.0000 
0.0000 -0.0000 0.0000 
-0.0000 0.0000 0.0000 
-0.0000 -0.0000 -0.0000 
-0.0000 -0.0000 -0.0000 
0.0000 -0.0000 -0.0000 
0.0000 -0.0000 0.0000 
0.0000 0.0000 -0.0000 
-0.0000 0.0000 -0.0000 
-0.0000 -0.0000 -0.0000 
0.0000 -0.0000 -0.0000 
0.0000 0.0000 -0.0000 
-0.0000 0.0000 0.0000 
0.0000 0.0000 0.0000 
0.0000 -0.0000 0.0000 
0.0000 -0.0000 -0.0000 
-0.0000 -0.0000 -0.0000 
0.0000 0.0000 -0.0000 
0.0000 -0.0000 0.0000 
0.0000 -0.0000 0.0000 
-0.0000 0.0000 -0.0000 
-0.0000 -0.0000 -0.0000 
0.0000 -0.0000 -0.0000 
-0.0000 -0.0000 0.0000 
0.0000 -0.0000 0.0000 
-0.0000 -0.0000 0.0000 
0.0000 -0.0000 0.0000 
0.0000 0.0000 0.0000 
0.0000 0.0000 0.0000 
0.0000 0.0000 -0.0000 
0.0000 0.0000 0.0000 
0.0000 -0.0000 0.0000 
0.0000 -0.0000 -0.0000 
-0.0000 0.0000 -0.0000 
-0.0000 -0.0000 -0.0000 
-0.0000 -0.0000 -0.0000 
0.0000 -0.0000 -0.0000 
0.0000 0.0000 -0.0000 
-0.0000 0.0000 0.0000 
0.0000 0.0000 0.0000 
0.0000 0.0000 0.0000 
0.0000 -0.0000 0.0000 
-0.0000 0.0000 -0.0000 
-0.0000 0.0000 0.0000 
0.0000 -0.0000 0.0000 
0.0000 -0.0000 0.0000 
0.0000 -0.0000 0.0000 
0.0000 0.0000 -0.0000 
0.0000 0.0000 0.0000 
0.0000 0.0000 0.0000 
0.0000 -0.0000 0.0000 
-0.0000 0.0000 -0.0000 
0.0000 0.0000 0.0000 
0.0000 0.0000 -0.0000 
-0.0000 0.0000 -0.0000 
0.0000 -0.0000 0.0000 
-0.0000 -0.0000 0.0000 
0.0000 0.0000 -0.0000 
0.0000 0.0000 -0.0000 
0.0000 -0.0000 -0.0000 
-0.0000 -0.0000 -0.0000 
0.0000 0.0000 0.0000 
0.0000 -0.0000 0.0000 
0.0000 0.0000 -0.0000 
0.0000 0.0000 0.0000 
0.0000 0.0000 0.0000 
-0.0000 -0.0000 -0.0000 
0.0000 0.0000 -0.0000 
-0.0000 0.0000 0.0000 
-0.0000 0.0000 0.0000 
0.0000 0.0000 0.0000 
-0.0000 -0.0000 -0.0000 
-0.0000 -0.0000 -0.0000 
0.0000 0.0000 0.0000 
-0.0000 0.0000 0.0000 
0.0000 -0.0000 -0.0000 
0.0000 -0.0000 -0.0000 
0.0000 -0.0000 0.0000 
0.0000 -0.0000 0.0000 
-0.0000 -0.0000 0.0000 
0.0000 -0.0000 0.0000 
0.0000 -0.0000 0.0000 
0.0000 -0.0000 0.0000 
0.0000 0.0000 -0.0000 
-0.0000 0.0000 -0.0000 
0.0000 0.0000 -0.0000 
0.0000 -0.0000 0.0000 
0.0000 0.0000 -0.0000 
0.0000 -0.0000 -0.0000 
0.0000 -0.0000 0.0000 
0.0000 0.0000 0.0000 
0.0000 0.0000 0.0000 
-0.0000 0.0000 -0.0000 
-0.0000 0.0000 -0.0000 
-0.0000 0.0000 0.0000 
-0.0000 0.0000 0.0000 
0.0000 0.0000 -0.0000 
-0.0000 0.0000 0.0000 
0.0000 0.0000 0.0000 
0.0000 0.0000 0.0000 
-0.0000 -0.0000 -0.0000 
0.0000 0.0000 0.0000 
-0.0000 0.0000 -0.0000 
0.0000 -0.0000 -0.0000 
0.0000 -0.0000 0.0000 
0.0000 -0.0000 0.0000 
-0.0000 -0.0000 0.0000 
-0.0000 -0.0000 -0.0000 
0.0000 0.0000 -0.0000 
0.0000 0.0000 0.0000 
0.0000 0.0000 -0.0000 
0.0000 0.0000 -0.0000 
0.0000 0.0000 0.0000 
0.0000 -0.0000 0.0000 
0.0000 0.0000 -0.0000 
-0.0000 0.0000 0.0000 
0.0000 0.0000 0.0000 
-0.0000 -0.0000 0.0000 
0.0000 -0.0000 0.0000 
0.0000 -0.0000 0.0000 
-0.0000 0.0000 0.0000 
0.0000 0.0000 -0.0000 
0.0000 -0.0000 -0.0000 
0.0000 0.0000 0.0000 
0.0000 -0.0000 0.0000 
0.0000 0.0000 0.0000 
0.0000 -0.0000 0.0000 
-0.0000 -0.0000 0.0000 
-0.0000 -0.0000 -0.0000 
-0.0000 0.0000 -0.0000 
0.0000 0.0000 -0.0000 
-0.0000 0.0000 0.0000 
-0.0000 0.0000 -0.0000 
0.0000 0.0000 0.0000 
-0.0000 -0.0000 0.0000 
0.0000 0.0000 0.0000 
-0.0000 0.0000 -0.0000 
0.0000 0.0000 0.0000 
-0.0000 -0.0000 0.0000 
0.0000 0.0000 -0.0000 
0.0000 0.0000 0.0000 
0.0000 -0.0000 0.0000 
0.0000 -0.0000 -0.0000 
-0.0000 -0.0000 0.0000 
0.0000 -0.0000 -0.0000 
0.0000 -0.0000 0.0000 
-0.0000 -0.0000 -0.0000 
0.0000 -0.0000 0.0000 
0.0000 -0.0000 -0.0000 
-0.0000 -0.0000 -0.0000 
-0.0000 0.0000 0.0000 
-0.0000 0.0000 0.0000 
-0.0000 0.0000 0.0000 
0.0000 0.0000 -0.0000 
0.0000 0.0000 0.0000 
0.0000 -0.0000 0.0000 
-0.0000 -0.0000 0.0000 
-0.0000 0.0000 0.0000 
0.0000 0.0000 0.0000 
-0.0000 -0.0000 0.0000 
-0.0000 -0.0000 0.0000 
-0.0000 -0.0000 0.0000 
0.0000 0.0000 -0.0000 
0.0000 0.0000 0.0000 
0.0000 0.0000 -0.0000 
0.0000 0.0000 0.0000 
0.0000 -0.0000 -0.0000 
-0.0000 -0.0000 -0.0000 
-0.0000 0.0000 0.0000 
-0.0000 0.0000 -0.0000 
0.0000 0.0000 0.0000 
-0.0000 0.0000 -0.0000 
0.0000 -0.0000 0.0000 
-0.0000 -0.0000 -0.0000 
-0.0000 -0.0000 -0.0000 
-0.0000 -0.0000 -0.1231 
0.0000 -0.0000 -0.1424 
-0.0000 -0.0000 -0.1136 
-0.0000 0.0000 -0.1919 
0.0000 -0.0000 -0.1740 
-0.0000 0.0000 -0.1634 
-0.0000 0.0000 -0.1872 
0.0000 0.0000 -0.1485 
0.0000 0.0000 -0.1319 
-0.0000 -0.0000 -0.1858 
-0.0000 -0.0000 -0.1146 
-0.0000 -0.0000 -0.1046 
0.0000 0.0000 -0.1403 
0.0000 -0.0000 -0.1479 
-0.0000 -0.0000 -0.1242 
0.0000 -0.0000 -0.1814 
0.0000 0.0000 -0.1488 
0.0000 -0.0000 -0.1525 
0.0000 0.0000 -0.1659 
0.0000 0.0000 -0.0819 
0.0000 0.0000 -0.1198 
-0.0000 -0.0000 -0.0646 
0.0000 0.0000 -0.0127 
0.0000 -0.0000 -0.0108 
0.0000 0.0000 0.0325 
-0.0000 0.0000 -0.0920 
-0.0000 0.0000 0.0492 
0.0000 -0.0000 0.0487 
0.0000 -0.0000 0.1065 
0.0000 0.0000 0.0690 
-0.0000 -0.0000 0.1046 
0.0000 -0.0000 0.1843 
-0.0000 -0.0000 0.0308 
-0.0000 -0.0000 -0.1006 
-0.0000 -0.0000 0.0325 
-0.0000 0.0000 -0.0358 
0.0000 0.0000 -0.0705 
-0.0000 0.0000 0.0670 
0.0000 -0.0000 0.1111 
-0.0000 -0.0000 -0.0797 
0.0000 -0.0000 -0.0453 
0.0000 -0.0000 -0.0658 
-0.0000 -0.0000 -0.0536 
0.0000 -0.0000 0.0577 
0.0000 -0.0000 -0.0757 
0.0000 0.0000 0.0290 
-0.0000 0.0000 0.1307 
0.0000 0.0000 0.0386 
0.0000 0.0000 0.0817 
0.0000 -0.0000 0.0590 
0.0000 -0.0000 -0.0761 
-0.0000 -0.0000 0.1214 
1.4783 7.5950 -0.0895 
3.2994 4.4654 -0.0729 
4.1014 6.2466 0.0982 
3.6490 3.3989 0.2481 
5.2947 2.8428 0.2553 
1.2728 6.2242 0.0847 
7.7442 6.7087 -0.2614 
7.2514 3.2833 0.3152 
2.2132 6.4591 0.1071 
4.2421 4.2313 -0.1815 
4.0870 3.2855 0.1591 
0.3461 3.1901 -0.0388 
3.3721 7.3619 -0.2798 
3.1539 6.0866 0.0296 
1.3907 6.3854 -0.0812 
7.0792 4.0756 -0.0961 
5.4398 3.3983 0.2815 
4.3231 7.2850 -0.0342 
6.0083 2.0636 0.1741 
0.6770 0.1414 0.0031 
7.7307 0.8120 -0.3979 
0.0000 -0.0000 0.3861 
-0.0000 -0.0000 0.0609 
-0.0000 -0.0000 -0.1187 
-0.0000 -0.0000 0.1580 
0.2835 6.7367 0.2992 
1.8875 8.1798 0.0985 
4.1654 4.1288 0.3931 
1.1857 3.5792 0.3256 
2.1013 5.8008 -0.1488 
7.5679 1.8208 0.2218 
4.4809 0.6355 0.6131 
7.1542 3.8391 0.0872 
4.3604 3.2015 0.4297 
7.0797 2.0081 0.2025 
1.9867 6.3370 0.4275 
0.9652 8.0421 -0.1725 
5.3931 0.7910 0.2189 
0.8964 6.4984 0.4573 
2.3795 1.5720 0.3753 
0.8201 0.0791 0.4632 
2.3858 3.4173 0.3280 
7.6033 1.1777 0.2918 
4.2819 4.4397 0.3963 
2.2069 4.6480 -0.1568 
2.8538 5.7787 -0.1721 
0.0000 -0.0000 0.1857 
-0.0000 -0.0000 0.1334 
0.0000 0.0000 -0.0991 
-0.0000 0.0000 0.0621 
4.0951 7.3031 0.0609 
6.5988 0.1636 0.5952 
2.1400 5.7216 0.2425 
5.1555 8.2203 -0.5986 
8.3002 8.2147 -0.1951 
0.1127 3.8007 0.3212 
3.8230 2.9001 -0.2023 
4.3408 8.1909 -0.2556 
7.3110 4.0489 -0.1360 
1.2605 2.6258 0.2724 
1.5432 3.1782 -0.0084 
7.7488 0.1501 -0.0276 
6.5347 4.1969 0.4355 
1.3302 1.0583 0.3163 
7.8061 2.5431 -0.3632 
0.5449 2.1338 0.3694 
3.1710 0.0191 -0.1593 
5.7670 6.4393 -0.2014 
0.2323 5.5150 -0.0277 
7.3946 3.3164 -0.4833 
7.6380 4.1754 0.1524 
0.0000 -0.0000 0.2528 
0.0000 0.0000 0.1082 
0.0000 -0.0000 -0.1159 
-0.0000 -0.0000 0.0385 
3.6541 5.1046 0.2025 
1.9016 1.1089 0.0929 
5.0762 2.3613 -0.0229 
7.7113 6.9783 0.0621 
5.2967 7.2161 0.5971 
0.4568 0.4563 0.1172 
8.2682 4.1099 -0.5282 
2.4635 6.9179 0.4940 
2.0008 7.6540 -0.1587 
3.2156 6.6769 -0.0394 
2.1759 8.1565 -0.0310 
1.8725 4.7623 -0.2068 
3.0679 0.5313 0.1251 
1.4526 0.7203 -0.0518 
6.4010 8.1400 -0.2220 
4.8641 3.7393 0.4160 
2.6244 7.4514 -0.1428 
7.5359 7.5932 -0.0409 
7.4838 8.0118 -0.0481 
3.6232 6.4838 -0.1173 
0.5886 7.9008 -0.3630 
0.0000 0.0000 -0.0630 
-0.0000 0.0000 0.2019 
0.0000 -0.0000 -0.1018 
-0.0000 -0.0000 0.0622 
5.3748 5.6590 -0.0727 
6.9860 5.9513 -0.1715 
7.5311 1.1466 -0.0649 
5.1677 0.6898 0.3130 
3.5416 0.9352 0.5868 
0.0491 3.0768 -0.2287 
8.0841 8.0451 -0.6264 
4.4226 3.0199 0.6074 
2.8396 7.7533 0.0237 
4.9323 0.7999 0.0165 
7.4274 1.0161 0.3578 
3.7789 4.0718 0.2052 
5.7852 7.6876 -0.5925 
7.6240 1.1236 -0.0556 
0.9285 1.2032 0.6254 
1.8619 2.7776 0.1204 
4.0682 3.7916 0.1699 
6.6523 0.0699 0.0565 
3.6756 3.4028 0.5844 
1.4131 1.5073 0.0832 
7.3592 7.2779 -0.3010 
0.0000 0.0000 0.2612 
-0.0000 -0.0000 0.1313 
0.0000 -0.0000 -0.1650 
-0.0000 0.0000 0.1353 
0.2395 4.5740 0.2726 
2.9900 7.1776 0.1617 
7.2019 0.4427 -0.0311 
6.1268 4.2587 -0.0722 
5.4667 1.2150 -0.2748 
4.1343 3.6555 0.0585 
0.8204 3.7938 0.3740 
2.1909 2.6511 -0.1357 
3.8676 7.7126 -0.0169 
4.2656 6.0126 -0.2347 
4.9707 5.3047 -0.3306 
3.9218 7.8817 -0.0492 
3.4473 6.0861 0.0911 
4.2765 4.3494 -0.1256 
1.3067 5.3937 -0.1061 
2.0197 6.1334 -0.0031 
1.6305 7.2584 -0.2465 
5.8332 7.2258 -0.7400 
4.5628 1.9072 -0.1110 
0.8449 2.5087 -0.4229 
2.8960 3.4159 -0.2338 
0.0000 0.0000 0.1394 
-0.0000 0.0000 0.1756 
0.0000 -0.0000 -0.1178 
-0.0000 -0.0000 -0.0303 
7.3652 1.6027 0.2016 
0.9636 1.6213 0.6631 
7.2476 1.2470 -0.3175 
5.9582 7.1267 0.1854 
1.3974 7.7557 -0.3538 
7.3568 6.4964 -0.4155 
0.6438 1.3191 0.0904 
5.8590 6.0764 -0.4826 
5.5792 1.6125 0.3393 
5.7341 3.8182 0.0260 
8.2380 7.1284 -0.0657 
0.5028 1.0980 0.4745 
5.1802 5.1156 -0.2653 
4.0564 5.3201 0.0596 
2.5394 6.2669 0.1981 
1.2167 2.1389 0.0555 
7.9625 4.5721 -0.0905 
8.0041 7.8170 0.2015 
7.2820 7.9172 -0.4072 
6.2507 5.0460 -0.2158 
3.1658 6.7547 -0.1932 
-0.0000 0.0000 -0.1051 
-0.0000 0.0000 0.1622 
-0.0000 0.0000 -0.1682 
-0.0000 -0.0000 -0.0032 
5.1488 2.6259 -0.0451 
5.9200 2.2678 0.3563 
0.4857 3.5729 0.2012 
4.7087 6.2272 -0.0636 
4.5421 3.8749 0.2498 
8.1161 8.1978 -0.1149 
0.9857 7.0721 -0.1925 
5.2879 2.6822 -0.1578 
1.2287 1.4883 0.0202 
1.7863 7.1269 -0.2928 
0.2875 7.1698 -0.2129 
6.4508 0.8750 -0.2850 
2.1472 6.3377 -0.0923 
6.5475 1.1593 -0.1274 
5.0809 5.0589 0.3465 
0.2465 6.6059 -0.3738 
7.5811 1.7649 -0.3670 
3.1168 0.2671 0.6306 
3.4497 6.6953 0.0705 
7.7048 0.3276 -0.2861 
3.8033 6.1750 0.1134 
-0.0000 0.0000 -0.0608 
0.0000 -0.0000 0.1588 
0.0000 0.0000 -0.1549 
-0.0000 0.0000 -0.0275 
8.0643 2.8276 -0.0538 
1.6458 3.4674 0.4160 
6.5449 1.6150 -0.2715 
6.9856 7.8921 -0.0435 
6.4311 1.1296 0.2742 
3.2208 3.9115 0.2611 
7.9026 7.0945 -0.1539 
4.5031 2.0569 0.1033 
4.5586 3.5950 0.0324 
2.4735 8.2851 -0.1521 
6.2426 7.7304 -0.4002 
0.9853 0.3585 0.2288 
1.3778 4.5643 -0.0641 
8.2621 0.0125 -0.2096 
0.5612 6.0397 0.3346 
6.3200 5.1564 -0.2704 
3.6053 3.1028 0.0760 
1.1792 2.4513 0.0547 
0.4172 0.4595 -0.1727 
8.0486 5.8391 -0.8360 
1.9030 7.4414 0.2002 
-0.0000 0.0000 -0.0334 
-0.0000 -0.0000 0.2127 
0.0000 -0.0000 -0.1827 
-0.0000 -0.0000 -0.0190 
3.2258 6.0502 -0.0856 
1.2333 4.8793 -0.0415 
4.8436 7.9351 -0.4511 
3.6066 3.0062 0.2979 
0.8587 0.7604 0.0534 
0.0428 4.0576 -0.3237 
3.2864 1.3799 -0.0493 
7.3416 2.1444 0.0198 
2.4413 0.0145 0.2495 
5.7292 6.3604 -0.0080 
6.1514 6.3650 0.3257 
7.5299 0.1306 0.0815 
6.0072 1.0312 0.0907 
5.3656 0.6703 -0.2020 
5.6448 0.6506 0.0055 
6.0994 4.9270 -0.0234 
7.4886 4.1344 -0.1772 
7.7814 4.1078 -0.0776 
3.6757 5.4017 -0.0693 
2.9260 7.0062 -0.3693 
7.7572 0.1429 -0.0813 
0.0000 -0.0000 0.3630 
-0.0000 0.0000 0.2020 
0.0000 -0.0000 -0.1460 
0.0000 -0.0000 -0.1268 
7.9497 7.0338 -0.1084 
0.5720 6.4325 0.5321 
2.8480 2.4092 0.4116 
0.1147 5.8386 0.0338 
3.3009 7.6087 -0.5704 
5.0424 7.8741 -0.1192 
1.2175 2.2331 -0.0180 
3.3852 1.2863 -0.1003 
0.6294 3.0883 -0.2343 
5.1310 1.8568 -0.2153 
2.7703 0.2188 0.4146 
0.7094 1.5090 -0.0369 
6.2596 2.0321 -0.2081 
6.2228 8.3093 -0.1422 
1.9287 5.4578 -0.2175 
2.6218 0.9819 -0.0915 
1.3487 6.8731 0.1876 
0.3526 6.0952 -0.1113 
4.6149 5.9532 -0.0917 
5.5969 4.6435 -0.2199 
8.2296 3.1756 -0.5294 
0.0000 -0.0000 0.2720 
0.0000 -0.0000 0.2277 
0.0000 0.0000 -0.1620 
0.0000 0.0000 -0.1571 
7.4891 2.8946 0.1776 
1.2379 0.7115 0.7959 
0.7369 1.7681 -0.1422 
2.9383 0.7381 0.0385 
7.0888 6.3295 0.0254 
5.8605 0.5802 0.5026 
1.3591 4.8815 0.1924 
1.6491 2.3566 -0.2235 
7.8129 4.3472 -0.0856 
2.1865 8.1189 0.2974 
0.3396 5.7018 -0.2427 
5.4069 3.3457 -0.1216 
3.2226 0.8731 0.0945 
5.8712 3.4574 0.5113 
0.5768 4.5642 0.2908 
7.7586 1.9279 -0.3986 
2.1245 0.0502 0.4142 
5.6041 4.5095 0.1040 
2.1035 7.3325 -0.1562 
7.8704 3.1535 -0.4321 
2.7195 6.8875 0.2054 
-0.0000 0.0000 -0.0390 
0.0000 0.0000 0.2076 
0.0000 0.0000 -0.1361 
0.0000 -0.0000 -0.1083 
7.8063 1.2728 -0.2476 
2.1789 5.0024 0.0741 
7.0189 6.9863 -0.6159 
5.4219 2.6858 -0.1294 
5.2878 3.3830 0.1165 
2.4846 3.4545 -0.0266 
5.4436 4.8174 -0.0931 
8.1602 1.0719 -0.0867 
5.8442 0.8681 0.3443 
2.9491 1.1966 0.4650 
6.1690 3.6646 0.0098 
2.4592 3.9320 0.2243 
3.9178 5.7225 -0.1774 
6.3206 2.9945 -0.0770 
4.5060 2.5790 0.0046 
6.7339 0.3430 -0.0534 
1.2565 7.8960 -0.0538 
1.6734 0.6218 -0.3686 
6.3693 7.9142 -0.1757 
2.4768 1.9372 -0.0298 
4.1445 0.7123 -0.1565 
-0.0000 -0.0000 0.0505 
0.0000 -0.0000 0.2158 
-0.0000 -0.0000 -0.1718 
-0.0000 -0.0000 -0.0397 
5.2511 6.0709 -0.1283 
3.5353 6.2833 0.2353 
1.6134 7.4598 0.2158 
0.5693 5.0244 0.1991 
0.9053 4.0142 -0.0727 
3.6536 2.6729 0.1510 
3.2396 3.8603 0.3256 
2.0990 3.8122 -0.0404 
5.3500 4.9135 -0.2026 
5.3947 6.1211 -0.2739 
5.1846 8.3277 -0.0737 
0.2520 6.8992 0.0903 
2.0733 2.3295 -0.0810 
5.9425 6.9315 -0.3666 
6.1123 4.4017 -0.0794 
7.4036 0.0620 0.0178 
4.4910 6.3084 0.4583 
1.5964 7.0884 -0.2358 
6.4374 1.8757 -0.0928 
5.1530 3.7484 -0.2077 
7.8208 7.3955 -0.5859 
0.0000 -0.0000 0.2496 
0.0000 -0.0000 0.2280 
0.0000 0.0000 -0.1661 
0.0000 -0.0000 0.0332 
4.0991 0.7712 0.1944 
2.9525 4.1365 0.4429 
6.7853 1.9053 0.3433 
2.6770 0.9228 0.2840 
8.1348 3.7520 -0.3459 
3.1528 0.2656 0.4113 
0.7729 1.9475 0.2455 
0.1753 4.0951 -0.0570 
4.4104 2.8684 -0.0521 
0.8075 4.9229 0.0839 
7.6236 1.9353 -0.1219 
6.0297 7.4173 0.2915 
3.8168 4.7290 0.0916 
2.2574 6.9195 0.1041 
6.9280 1.3988 0.1668 
0.4783 2.6165 0.1256 
4.6277 4.8048 -0.1902 
4.9566 1.0139 0.3065 
2.5584 5.5695 -0.1898 
3.0497 1.5046 -0.3724 
8.2809 1.4829 -0.1542 
0.0000 -0.0000 0.4411 
0.0000 -0.0000 0.2422 
0.0000 -0.0000 -0.1474 
-0.0000 -0.0000 0.0238 
5.1431 6.7517 -0.2454 
6.8059 0.4790 -0.0031 
5.0072 4.8605 0.0303 
0.4519 5.8682 -0.0934 
0.4958 7.5342 -0.3414 
3.6192 2.4124 -0.1637 
5.7262 7.1659 -0.3242 
5.6112 3.4162 0.0654 
2.9934 8.3166 -0.0297 
4.0943 5.1364 -0.0384 
1.4420 8.0012 -0.1280 
0.9328 0.3232 0.0380 
4.7860 1.5024 0.0500 
3.0961 0.9256 0.2831 
2.9787 1.5522 0.0135 
0.7950 7.3126 -0.2784 
8.2081 5.1264 -0.4426 
3.5264 6.3146 -0.0520 
6.3797 4.5410 -0.1793 
6.2107 1.6382 -0.2653 
7.2179 6.3387 -0.4161 
0.0000 -0.0000 0.2391 
-0.0000 -0.0000 0.2420 
0.0000 0.0000 -0.1561 
-0.0000 -0.0000 0.0216 
6.7449 1.4355 0.2291 
4.3468 7.1797 0.1748 
2.1348 6.9294 -0.0725 
7.3588 6.2421 -0.1380 
7.0659 6.0101 0.4608 
0.1732 4.3588 0.2682 
0.5003 7.6018 -0.4240 
5.7440 2.3408 -0.1879 
2.1726 0.9228 0.6776 
0.1744 2.9536 -0.0717 
4.9311 0.9817 0.0158 
0.3300 5.0494 -0.0043 
0.8557 2.9990 -0.2582 
3.0099 4.7927 -0.1910 
0.0661 5.1614 -0.0624 
3.8722 6.0072 0.1223 
0.9730 4.6436 0.1804 
5.9878 3.7459 0.0520 
5.5630 2.8794 0.0487 
4.6600 0.5021 -0.2243 
4.7269 3.7004 0.0198 
0.0000 -0.0000 0.1498 
-0.0000 -0.0000 0.1985 
0.0000 -0.0000 -0.1251 
0.0000 -0.0000 -0.0202 
3.8886 1.8407 -0.1258 
3.0898 6.0397 0.5702 
0.2921 6.1907 0.1996 
7.2070 2.1748 -0.2497 
8.0058 0.0327 0.0029 
7.5831 6.5475 -0.2559 
6.2931 8.2251 -0.0366 
2.3818 5.0708 0.0100 
2.7491 2.9952 -0.3326 
3.9236 8.0360 -0.3764 
4.7435 7.2769 -0.4212 
5.0228 3.6261 0.0576 
1.9838 1.2773 -0.0700 
4.8033 5.4280 -0.2628 
3.0699 1.3376 0.2219 
2.2635 2.6628 -0.0197 
8.2125 1.2403 -0.3365 
5.3993 1.3431 0.2060 
3.2585 2.1008 0.1631 
0.9656 4.0210 -0.4197 
2.5698 3.5674 -0.3237 
-0.0000 -0.0000 0.0637 
-0.0000 -0.0000 0.1901 
0.0000 0.0000 -0.1050 
0.0000 -0.0000 0.0424 
0.3450 7.4580 -0.2527 
3.1687 2.3964 0.0519 
6.0308 2.5008 -0.0870 
6.4746 4.7068 -0.1572 
0.8373 6.3957 -0.4362 
7.6660 7.5536 -0.7467 
5.7263 3.0506 0.4501 
0.9540 2.5494 0.1364 
6.3237 5.0319 -0.3569 
6.2242 4.0768 0.1543 
6.8143 2.0369 0.2550 
4.9989 7.2701 -0.0092 
4.7323 4.4277 -0.3201 
6.8725 6.0971 -0.3758 
8.0485 3.3736 -0.0408 
0.3996 6.0167 0.0866 
1.3489 5.8651 -0.6279 
6.9217 2.4781 -0.2613 
0.0871 0.6715 0.0455 
5.4802 5.1596 -0.4059 
7.1089 3.9031 -0.1253 
-0.0000 0.0000 0.1916 
-0.0000 -0.0000 0.1262 
-0.0000 -0.0000 -0.0497 
-0.0000 -0.0000 0.0377 
3.0793 7.9403 -0.0168 
6.0145 2.7936 -0.1246 
3.2257 5.7799 -0.2124 
7.7582 3.8733 -0.2363 
3.9343 2.1118 0.0467 
4.3708 3.9761 -0.0552 
0.2956 5.0989 -0.1566 
1.8477 3.7397 -0.6410 
6.7347 0.7177 -0.2322 
0.9224 8.1072 -0.1220 
3.6722 1.6555 -0.6540 
5.6376 0.7475 -0.2255 
3.8366 4.5253 0.0794 
0.1702 1.3532 -0.1411 
5.7538 0.0398 -0.3596 
1.8934 4.5495 0.2587 
1.8141 5.2555 -0.0760 
0.6675 3.2759 -0.2099 
4.5045 4.7290 -0.4436 
4.9511 0.6938 -0.2485 
0.6200 4.1743 -0.1047 
-0.0000 -0.0000 -0.0782 
0.0000 -0.0000 0.1671 
0.0000 0.0000 -0.0202 
0.0000 0.0000 0.0132 
1.5184 0.7173 0.1735 
3.4384 2.0999 0.1811 
1.3981 1.4419 0.1506 
7.3533 0.2725 -0.4680 
7.5872 7.3041 -0.3690 
3.5889 0.4812 0.1467 
1.0896 3.8966 -0.0677 
4.2244 5.0612 -0.4018 
6.6318 2.9810 -0.2495 
4.9942 3.7190 0.2384 
5.6699 6.6352 -0.3889 
3.8901 6.7814 -0.4961 
5.9336 2.5249 -0.1457 
2.4100 2.0571 0.0204 
0.2377 3.2445 -0.4513 
4.1570 1.3692 -0.0895 
1.6276 6.2600 -0.0108 
8.0319 0.5047 -0.3495 
6.3591 0.7611 0.0892 
5.1066 7.8326 -0.4126 
3.2192 4.8639 -0.0331 
-0.0000 -0.0000 -0.0268 
0.0000 0.0000 0.0933 
0.0000 0.0000 0.0032 
-0.0000 -0.0000 -0.0180 
-0.0000 -0.0000 -0.0847 
0.0000 0.0000 0.0276 
-0.0000 0.0000 -0.0807 
-0.0000 -0.0000 -0.1850 
0.0000 -0.0000 0.2263 
-0.0000 0.0000 -0.0015 
-0.0000 -0.0000 -0.0148 
-0.0000 0.0000 0.0975 
0.0000 -0.0000 0.0510 
0.0000 -0.0000 0.0013 
0.0000 -0.0000 0.2873 
-0.0000 0.0000 0.3210 
-0.0000 -0.0000 -0.0248 
0.0000 -0.0000 0.0176 
-0.0000 0.0000 0.0227 
0.0000 0.0000 -0.0712 
-0.0000 0.0000 0.1534 
-0.0000 0.0000 -0.1085 
-0.0000 0.0000 -0.0864 
-0.0000 -0.0000 0.3550 
-0.0000 0.0000 0.2169 
-0.0000 0.0000 0.0092 
0.0000 0.0000 0.1098 
0.0000 -0.0000 0.0043 
-0.0000 -0.0000 0.0148 
-0.0000 -0.0000 0.0373 
0.0000 -0.0000 0.0277 
0.0000 -0.0000 0.0690 
0.0000 -0.0000 0.1387 
0.0000 -0.0000 0.1098 
-0.0000 0.0000 0.1933 
-0.0000 -0.0000 0.1584 
0.0000 0.0000 0.1318 
0.0000 -0.0000 0.1458 
-0.0000 -0.0000 0.1685 
-0.0000 0.0000 0.1747 
-0.0000 -0.0000 0.1839 
-0.0000 -0.0000 0.1863 
-0.0000 -0.0000 0.1283 
-0.0000 0.0000 0.1257 
0.0000 0.0000 0.1228 
-0.0000 -0.0000 0.0693 
0.0000 -0.0000 0.1328 
-0.0000 0.0000 0.1484 
-0.0000 -0.0000 0.1444 
-0.0000 0.0000 0.1532 
-0.0000 0.0000 0.1499 
0.0000 -0.0000 0.1196 
VECTORS Tractions float
0.0000 0.0000 0.0000 
0.0000 0.0000 0.0000 
0.0000 0.0000 0.0000 
0.0000 0.0000 0.0000 
0.0000 0.0000 0.0000 
0.0000 0.0000 0.0000 
0.0000 0.0000 0.0000 
0.0000 0.0000 0.0000 
0.0000 0.0000 0.0000 
0.0000 0.0000 0.0000 
0.0000 0.0000 0.0000 
0.0000 0.0000 0.0000 
0.0000 0.0000 0.0000 
0.0000 0.0000 0.0000 
0.0000 0.0000 0.0000 
0.0000 0.0000 0.0000 
0.0000 0.0000 0.0000 
0.0000 0.0000 0.0000 
0.0000 0.0000 0.0000 
0.0000 0.0000 0.0000 
0.0000 0.0000 0.0000 
0.0000 0.0000 0.0000 
0.0000 0.0000 0.0000 
0.0000 0.0000 0.0000 
0.0000 0.0000 0.0000 
0.0000 0.0000 0.0000 
0.0000 0.0000 0.0000 
0.0000 0.0000 0.0000 
0.0000 0.0000 0.0000 
0.0000 0.0000 0.0000 
0.0000 0.0000 0.0000 
0.0000 0.0000 0.0000 
0.0000 0.0000 0.0000 
0.0000 0.0000 0.0000 
0.0000 0.0000 0.0000 
0.0000 0.0000 0.0000 
0.0000 0.0000 0.0000 
0.0000 0.0000 0.0000 
0.0000 0.0000 0.0000 
0.0000 0.0000 0.0000 
0.0000 0.0000 0.0000 
0.0000 0.0000 0.0000 
0.0000 0.0000 0.0000 
0.0000 0.0000 0.0000 
0.0000 0.0000 0.0000 
0.0000 0.0000 0.0000 
0.0000 0.0000 0.0000 
0.0000 0.0000 0.0000 
0.0000 0.0000 0.0000 
0.0000 0.0000 0.0000 
0.0000 0.0000 0.0000 
0.0000 0.0000 0.0000 
0.0000 0.0000 0.0000 
0.0000 0.0000 0.0000 
0.0000 0.0000 0.0000 
0.0000 0.0000 0.0000 
0.0000 0.0000 0.0000 
0.0000 0.0000 0.0000 
0.0000 0.0000 0.0000 
0.0000 0.0000 0.0000 
0.0000 0.0000 0.0000 
0.0000 0.0000 0.0000 
0.0000 0.0000 0.0000 
0.0000 0.0000 0.0000 
0.0000 0.0000 0.0000 
0.0000 0.0000 0.0000 
0.0000 0.0000 0.0000 
0.0000 0.0000 0.0000 
0.0000 0.0000 0.0000 
0.0000 0.0000 0.0000 
0.0000 0.0000 0.0000 
0.0000 0.0000 0.0000 
0.0000 0.0000 0.0000 
0.0000 0.0000 0.0000 
0.0000 0.0000 0.0000 
0.0000 0.0000 0.0000 
0.0000 0.0000 0.0000 
0.0000 0.0000 0.0000 
0.0000 0.0000 0.0000 
0.0000 0.0000 0.0000 
0.0000 0.0000 0.0000 
0.0000 0.0000 0.0000 
0.0000 0.0000 0.0000 
0.0000 0.0000 0.0000 
0.0000 0.0000 0.0000 
0.0000 0.0000 0.0000 
0.0000 0.0000 0.0000 
0.0000 0.0000 0.0000 
0.0000 0.0000 0.0000 
0.0000 0.0000 0.0000 
0.0000 0.0000 0.0000 
0.0000 0.0000 0.0000 
0.0000 0.0000 0.0000 
0.0000 0.0000 0.0000 
0.0000 0.0000 0.0000 
0.0000 0.0000 0.0000 
0.0000 0.0000 0.0000 
0.0000 0.0000 0.0000 
0.0000 0.0000 0.0000 
0.0000 0.0000 0.0000 
0.0000 0.0000 0.0000 
0.0000 0.0000 0.0000 
0.0000 0.0000 0.0000 
0.0000 0.0000 0.0000 
0.0000 0.0000 0.0000 
0.0000 0.0000 0.0000 
0.0000 0.0000 0.0000 
0.0000 0.0000 0.0000 
0.0000 0.0000 0.0000 
0.0000 0.0000 0.0000 
0.0000 0.0000 0.0000 
0.0000 0.0000 0.0000 
0.0000 0.0000 0.0000 
0.0000 0.0000 0.0000 
0.0000 0.0000 0.0000 
0.0000 0.0000 0.0000 
0.0000 0.0000 0.0000 
0.0000 0.0000 0.0000 
0.0000 0.0000 0.0000 
0.0000 0.0000 0.0000 
0.0000 0.0000 0.0000 
0.0000 0.0000 0.0000 
0.0000 0.0000 0.0000 
0.0000 0.0000 0.0000 
0.0000 0.0000 0.0000 
0.0000 0.0000 0.0000 
0.0000 0.0000 0.0000 
0.0000 0.0000 0.0000 
0.0000 0.0000 0.0000 
0.0000 0.0000 0.0000 
0.0000 0.0000 0.0000 
0.0000 0.0000 0.0000 
0.0000 0.0000 0.0000 
0.0000 0.0000 0.0000 
0.0000 0.0000 0.0000 
0.0000 0.0000 0.0000 
0.0000 0.0000 0.0000 
0.0000 0.0000 0.0000 
0.0000 0.0000 0.0000 
0.0000 0.0000 0.0000 
0.0000 0.0000 0.0000 
0.0000 0.0000 0.0000 
0.0000 0.0000 0.0000 
0.0000 0.0000 0.0000 
0.0000 0.0000 0.0000 
0.0000 0.0000 0.0000 
0.0000 0.0000 0.0000 
0.0000 0.0000 0.0000 
0.0000 0.0000 0.0000 
0.0000 0.0000 0.0000 
0.0000 0.0000 0.0000 
0.0000 0.0000 0.0000 
0.0000 0.0000 0.0000 
0.0000 0.0000 0.0000 
0.0000 0.0000 0.0000 
0.0000 0.0000 0.0000 
0.0000 0.0000 0.0000 
0.0000 0.0000 0.0000 
0.0000 0.0000 0.0000 
0.0000 0.0000 0.0000 
0.0000 0.0000 0.0000 
0.0000 0.0000 0.0000 
0.0000 0.0000 0.0000 
0.0000 0.0000 0.0000 
0.0000 0.0000 0.0000 
0.0000 0.0000 0.0000 
0.0000 0.0000 0.0000 
0.0000 0.0000 0.0000 
0.0000 0.0000 0.0000 
0.0000 0.0000 0.0000 
0.0000 0.0000 0.0000 
0.0000 0.0000 0.0000 
0.0000 0.0000 0.0000 
0.0000 0.0000 0.0000 
0.0000 0.0000 0.0000 
0.0000 0.0000 0.0000 
0.0000 0.0000 0.0000 
0.0000 0.0000 0.0000 
0.0000 0.0000 0.0000 
0.0000 0.0000 0.0000 
0.0000 0.0000 0.0000 
0.0000 0.0000 0.0000 
0.0000 0.0000 0.0000 
0.0000 0.0000 0.0000 
0.0000 0.0000 0.0000 
0.0000 0.0000 0.0000 
0.0000 0.0000 0.0000 
0.0000 0.0000 0.0000 
0.0000 0.0000 0.0000 
0.0000 0.0000 0.0000 
0.0000 0.0000 0.0000 
0.0000 0.0000 0.0000 
0.0000 0.0000 0.0000 
0.0000 0.0000 0.0000 
0.0000 0.0000 0.0000 
0.0000 0.0000 0.0000 
0.0000 0.0000 0.0000 
0.0000 0.0000 0.0000 
0.0000 0.0000 0.0000 
0.0000 0.0000 0.0000 
0.0000 0.0000 0.0000 
0.0000 0.0000 0.0000 
0.0000 0.0000 0.0000 
0.0000 0.0000 0.0000 
0.0000 0.0000 0.0000 
0.0000 0.0000 0.0000 
0.0000 0.0000 0.0000 
0.0000 0.0000 0.0000 
0.0000 0.0000 0.0000 
0.0000 0.0000 0.0000 
0.0000 0.0000 0.0000 
0.0000 0.0000 0.0000 
0.0000 0.0000 0.0000 
0.0000 0.0000 0.0000 
0.0000 0.0000 0.0000 
0.0000 0.0000 0.0000 
0.0000 0.0000 0.0000 
0.0000 0.0000 0.0000 
0.0000 0.0000 0.0000 
0.0000 0.0000 0.0000 
0.0000 0.0000 0.0000 
0.0000 0.0000 0.0000 
0.0000 0.0000 0.0000 
0.0000 0.0000 0.0000 
0.0000 0.0000 0.0000 
0.0000 0.0000 0.0000 
0.0000 0.0000 0.0000 
0.0000 0.0000 0.0000 
0.0000 0.0000 0.0000 
0.0000 0.0000 0.0000 
0.0000 0.0000 0.0000 
0.0000 0.0000 0.0000 
0.0000 0.0000 0.0000 
0.0000 0.0000 0.0000 
0.0000 0.0000 0.0000 
0.0000 0.0000 0.0000 
0.0000 0.0000 0.0000 
0.0000 0.0000 0.0000 
0.0000 0.0000 0.0000 
0.0000 0.0000 0.0000 
0.0000 0.0000 0.0000 
0.0000 0.0000 0.0000 
0.0000 0.0000 0.0000 
0.0000 0.0000 0.0000 
0.0000 0.0000 0.0000 
0.0000 0.0000 0.0000 
0.0000 0.0000 0.0000 
0.0000 0.0000 0.0000 
0.0000 0.0000 0.0000 
0.0000 0.0000 0.0000 
0.0000 0.0000 0.0000 
0.0000 0.0000 0.0000 
0.0000 0.0000 0.0000 
0.0000 0.0000 0.0000 
0.0000 0.0000 0.0000 
0.0000 0.0000 0.0000 
0.0000 0.0000 0.0000 
0.0000 0.0000 0.0000 
0.0000 0.0000 0.0000 
0.0000 0.0000 0.0000 
0.0000 0.0000 0.0000 
0.0000 0.0000 0.0000 
0.0000 0.0000 0.0000 
0.0000 0.0000 0.0000 
0.0000 0.0000 0.0000 
0.0000 0.0000 0.0000 
0.0000 0.0000 0.0000 
0.0000 0.0000 0.0000 
0.0000 0.0000 0.0000 
0.0000 0.0000 0.0000 
0.0000 0.0000 0.0000 
0.0000 0.0000 0.0000 
0.0000 0.0000 0.0000 
0.0000 0.0000 0.0000 
0.0000 0.0000 0.0000 
0.0000 0.0000 0.0000 
0.0000 0.0000 0.0000 
0.0000 0.0000 0.0000 
0.0000 0.0000 0.0000 
0.0000 0.0000 0.0000 
0.0000 0.0000 0.0000 
0.0000 0.0000 0.0000 
0.0000 0.0000 0.0000 
0.0000 0.0000 0.0000 
0.0000 0.0000 0.0000 
0.0000 0.0000 0.0000 
0.0000 0.0000 0.0000 
0.0000 0.0000 0.0000 
0.0000 0.0000 0.0000 
0.0000 0.0000 0.0000 
0.0000 0.0000 0.0000 
0.0000 0.0000 0.0000 
0.0000 0.0000 0.0000 
0.0000 0.0000 0.0000 
0.0000 0.0000 0.0000 
0.0000 0.0000 0.0000 
0.0000 0.0000 0.0000 
0.0000 0.0000 0.0000 
0.0000 0.0000 0.0000 
0.0000 0.0000 0.0000 
0.0000 0.0000 0.0000 
0.0000 0.0000 0.0000 
0.0000 0.0000 0.0000 
0.0000 0.0000 0.0000 
0.0000 0.0000 0.0000 
0.0000 0.0000 0.0000 
0.0000 0.0000 0.0000 
0.0000 0.0000 0.0000 
0.0000 0.0000 0.0000 
0.0000 0.0000 0.0000 
0.0000 0.0000 0.0000 
0.0000 0.0000 0.0000 
0.0000 0.0000 0.0000 
0.0000 0.0000 0.0000 
0.0000 0.0000 0.0000 
0.0000 0.0000 0.0000 
0.0000 0.0000 0.0000 
0.0000 0.0000 0.0000 
0.0000 0.0000 0.0000 
0.0000 0.0000 0.0000 
0.0000 0.0000 0.0000 
0.0000 0.0000 0.0000 
0.0000 0.0000 0.0000 
0.0000 0.0000 0.0000 
0.0000 0.0000 0.0000 
0.0000 0.0000 0.0000 
0.0000 0.0000 0.0000 
0.0000 0.0000 0.0000 
0.0000 0.0000 0.0000 
0.0000 0.0000 0.0000 
0.0000 0.0000 0.0000 
0.0000 0.0000 0.0000 
0.0000 0.0000 0.0000 
0.0000 0.0000 0.0000 
0.0000 0.0000 0.0000 
0.0000 0.0000 0.0000 
0.0000 0.0000 0.0000 
0.0000 0.0000 0.0000 
0.0000 0.0000 0.0000 
0.0000 0.0000 0.0000 
0.0000 0.0000 0.0000 
0.0000 0.0000 0.0000 
0.0000 0.0000 0.0000 
0.0000 0.0000 0.0000 
0.0000 0.0000 0.0000 
0.0000 0.0000 0.0000 
0.0000 0.0000 0.0000 
0.0000 0.0000 0.0000 
0.0000 0.0000 0.0000 
0.0000 0.0000 0.0000 
0.0000 0.0000 0.0000 
0.0000 0.0000 0.0000 
0.0000 0.0000 0.0000 
0.0000 0.0000 0.0000 
0.0000 0.0000 0.0000 
0.0000 0.0000 0.0000 
0.0000 0.0000 0.0000 
0.0000 0.0000 0.0000 
0.0000 0.0000 0.0000 
0.0000 0.0000 0.0000 
0.0000 0.0000 0.0000 
0.0000 0.0000 0.0000 
0.0000 0.0000 0.0000 
0.0000 0.0000 0.0000 
0.0000 0.0000 0.0000 
0.0000 0.0000 0.0000 
0.0000 0.0000 0.0000 
0.0000 0.0000 0.0000 
0.0000 0.0000 0.0000 
0.0000 0.0000 0.0000 
0.0000 0.0000 0.0000 
0.0000 0.0000 0.0000 
0.0000 0.0000 0.0000 
0.0000 0.0000 0.0000 
0.0000 0.0000 0.0000 
0.0000 0.0000 0.0000 
0.0000 0.0000 0.0000 
0.0000 0.0000 0.0000 
0.0000 0.0000 0.0000 
0.0000 0.0000 0.0000 
0.0000 0.0000 0.0000 
0.0000 0.0000 0.0000 
0.0000 0.0000 0.0000 
0.0000 0.0000 0.0000 
0.0000 0.0000 0.0000 
0.0000 0.0000 0.0000 
0.0000 0.0000 0.0000 
0.0000 0.0000 0.0000 
0.0000 0.0000 0.0000 
0.0000 0.0000 0.0000 
0.0000 0.0000 0.0000 
0.0000 0.0000 0.0000 
0.0000 0.0000 0.0000 
0.0000 0.0000 0.0000 
0.0000 0.0000 0.0000 
0.0000 0.0000 0.0000 
0.0000 0.0000 0.0000 
0.0000 0.0000 0.0000 
0.0000 0.0000 0.0000 
0.0000 0.0000 0.0000 
0.0000 0.0000 0.0000 
0.0000 0.0000 0.0000 
0.0000 0.0000 0.0000 
0.0000 0.0000 0.0000 
0.0000 0.0000 0.0000 
0.0000 0.0000 0.0000 
0.0000 0.0000 0.0000 
0.0000 0.0000 0.0000 
0.0000 0.0000 0.0000 
0.0000 0.0000 0.0000 
0.0000 0.0000 0.0000 
0.0000 0.0000 0.0000 
0.0000 0.0000 0.0000 
0.0000 0.0000 0.0000 
0.0000 0.0000 0.0000 
0.0000 0.0000 0.0000 
0.0000 0.0000 0.0000 
0.0000 0.0000 0.0000 
0.0000 0.0000 0.0000 
0.0000 0.0000 0.0000 
0.0000 0.0000 0.0000 
0.0000 0.0000 0.0000 
0.0000 0.0000 0.0000 
0.0000 0.0000 0.0000 
0.0000 0.0000 0.0000 
0.0000 0.0000 0.0000 
0.0000 0.0000 0.0000 
0.0000 0.0000 0.0000 
0.0000 0.0000 0.0000 
0.0000 0.0000 0.0000 
0.0000 0.0000 0.0000 
0.0000 0.0000 0.0000 
0.0000 0.0000 0.0000 
0.0000 0.0000 0.0000 
0.0000 0.0000 0.0000 
0.0000 0.0000 0.0000 
0.0000 0.0000 0.0000 
0.0000 0.0000 0.0000 
0.0000 0.0000 0.0000 
0.0000 0.0000 0.0000 
0.0000 0.0000 0.0000 
0.0000 0.0000 0.0000 
0.0000 0.0000 0.0000 
0.0000 0.0000 0.0000 
0.0000 0.0000 0.0000 
0.0000 0.0000 0.0000 
0.0000 0.0000 0.0000 
0.0000 0.0000 0.0000 
0.0000 0.0000 0.0000 
0.0000 0.0000 0.0000 
0.0000 0.0000 0.0000 
0.0000 0.0000 0.0000 
0.0000 0.0000 0.0000 
0.0000 0.0000 0.0000 
0.0000 0.0000 0.0000 
0.0000 0.0000 0.0000 
0.0000 0.0000 0.0000 
0.0000 0.0000 0.0000 
0.0000 0.0000 0.0000 
0.0000 0.0000 0.0000 
0.0000 0.0000 0.0000 
0.0000 0.0000 0.0000 
0.0000 0.0000 0.0000 
0.0000 0.0000 0.0000 
0.0000 0.0000 0.0000 
0.0000 0.0000 0.0000 
0.0000 0.0000 0.0000 
0.0000 0.0000 0.0000 
0.0000 0.0000 0.0000 
0.0000 0.0000 0.0000 
0.0000 0.0000 0.0000 
0.0000 0.0000 0.0000 
0.0000 0.0000 0.0000 
0.0000 0.0000 0.0000 
0.0000 0.0000 0.0000 
0.0000 0.0000 0.0000 
0.0000 0.0000 0.0000 
0.0000 0.0000 0.0000 
0.0000 0.0000 0.0000 
0.0000 0.0000 0.0000 
0.0000 0.0000 0.0000 
0.0000 0.0000 0.0000 
0.0000 0.0000 0.0000 
0.0000 0.0000 0.0000 
0.0000 0.0000 0.0000 
0.0000 0.0000 0.0000 
0.0000 0.0000 0.0000 
0.0000 0.0000 0.0000 
0.0000 0.0000 0.0000 
0.0000 0.0000 0.0000 
0.0000 0.0000 0.0000 
0.0000 0.0000 0.0000 
0.0000 0.0000 0.0000 
0.0000 0.0000 0.0000 
0.0000 0.0000 0.0000 
0.0000 0.0000 0.0000 
0.0000 0.0000 0.0000 
0.0000 0.0000 0.0000 
0.0000 0.0000 0.0000 
0.0000 0.0000 0.0000 
0.0000 0.0000 0.0000 
0.0000 0.0000 0.0000 
0.0000 0.0000 0.0000 
0.0000 0.0000 0.0000 
0.0000 0.0000 0.0000 
0.0000 0.0000 0.0000 
0.0000 0.0000 0.0000 
0.0000 0.0000 0.0000 
0.0000 0.0000 0.0000 
0.0000 0.0000 0.0000 
0.0000 0.0000 0.0000 
0.0000 0.0000 0.0000 
0.0000 0.0000 0.0000 
0.0000 0.0000 0.0000 
0.0000 0.0000 0.0000 
0.0000 0.0000 0.0000 
0.0000 0.0000 0.0000 
0.0000 0.0000 0.0000 
0.0000 0.0000 0.0000 
0.0000 0.0000 0.0000 
0.0000 0.0000 0.0000 
0.0000 0.0000 0.0000 
0.0000 0.0000 0.0000 
0.0000 0.0000 0.0000 
0.0000 0.0000 0.0000 
0.0000 0.0000 0.0000 
0.0000 0.0000 0.0000 
0.0000 0.0000 0.0000 
0.0000 0.0000 0.0000 
0.0000 0.0000 0.0000 
0.0000 0.0000 0.0000 
0.0000 0.0000 0.0000 
0.0000 0.0000 0.0000 
0.0000 0.0000 0.0000 
0.0000 0.0000 0.0000 
0.0000 0.0000 0.0000 
0.0000 0.0000 0.0000 
0.0000 0.0000 0.0000 
0.0000 0.0000 0.0000 
0.0000 0.0000 0.0000 
0.0000 0.0000 0.0000 
0.0000 0.0000 0.0000 
0.0000 0.0000 0.0000 
0.0000 0.0000 0.0000 
0.0000 0.0000 0.0000 
0.0000 0.0000 0.0000 
0.0000 0.0000 0.0000 
0.0000 0.0000 0.0000 
0.0000 0.0000 0.0000 
0.0000 0.0000 0.0000 
0.0000 0.0000 0.0000 
0.0000 0.0000 0.0000 
0.0000 0.0000 0.0000 
0.0000 0.0000 0.0000 
0.0000 0.0000 0.0000 
0.0000 0.0000 0.0000 
0.0000 0.0000 0.0000 
0.0000 0.0000 0.0000 
0.0000 0.0000 0.0000 
0.0000 0.0000 0.0000 
0.0000 0.0000 0.0000 
0.0000 0.0000 0.0000 
0.0000 0.0000 0.0000 
0.0000 0.0000 0.0000 
0.0000 0.0000 0.0000 
0.0000 0.0000 0.0000 
0.0000 0.0000 0.0000 
0.0000 0.0000 0.0000 
0.0000 0.0000 0.0000 
0.0000 0.0000 0.0000 
0.0000 0.0000 0.0000 
0.0000 0.0000 0.0000 
0.0000 0.0000 0.0000 
0.0000 0.0000 0.0000 
0.0000 0.0000 0.0000 
0.0000 0.0000 0.0000 
0.0000 0.0000 0.0000 
0.0000 0.0000 0.0000 
0.0000 0.0000 0.0000 
0.0000 0.0000 0.0000 
0.0000 0.0000 0.0000 
0.0000 0.0000 0.0000 
0.0000 0.0000 0.0000 
0.0000 0.0000 0.0000 
0.0000 0.0000 0.0000 
0.0000 0.0000 0.0000 
0.0000 0.0000 0.0000 
0.0000 0.0000 0.0000 
0.0000 0.0000 0.0000 
0.0000 0.0000 0.0000 
0.0000 0.0000 0.0000 
0.0000 0.0000 0.0000 
0.0000 0.0000 0.0000 
0.0000 0.0000 0.0000 
0.0000 0.0000 0.0000 
0.0000 0.0000 0.0000 
0.0000 0.0000 0.0000 
0.0000 0.0000 0.0000 
0.0000 0.0000 0.0000 
0.0000 0.0000 0.0000 
0.0000 0.0000 0.0000 
0.0000 0.0000 0.0000 
0.0000 0.0000 0.0000 
0.0000 0.0000 0.0000 
0.0000 0.0000 0.0000 
0.0000 0.0000 0.0000 
0.0000 0.0000 0.0000 
0.0000 0.0000 0.0000 
0.0000 0.0000 0.0000 
0.0000 0.0000 0.0000 
0.0000 0.0000 0.0000 
0.0000 0.0000 0.0000 
0.0000 0.0000 0.0000 
0.0000 0.0000 0.0000 
0.0000 0.0000 0.0000 
0.0000 0.0000 0.0000 
0.0000 0.0000 0.0000 
0.0000 0.0000 0.0000 
0.0000 0.0000 0.0000 
0.0000 0.0000 0.0000 
0.0000 0.0000 0.0000 
0.0000 0.0000 0.0000 
0.0000 0.0000 0.0000 
0.0000 0.0000 0.0000 
0.0000 0.0000 0.0000 
0.0000 0.0000 0.0000 
0.0000 0.0000 0.0000 
0.0000 0.0000 0.0000 
0.0000 0.0000 0.0000 
0.0000 0.0000 0.0000 
0.0000 0.0000 0.0000 
0.0000 0.0000 0.0000 
0.0000 0.0000 0.0000 
0.0000 0.0000 0.0000 
0.0000 0.0000 0.0000 
0.0000 0.0000 0.0000 
0.0000 0.0000 0.0000 
0.0000 0.0000 0.0000 
0.0000 0.0000 0.0000 
0.0000 0.0000 0.0000 
0.0000 0.0000 0.0000 
0.0000 0.0000 0.0000 
0.0000 0.0000 0.0000 
0.0000 0.0000 0.0000 
0.0000 0.0000 0.0000 
0.0000 0.0000 0.0000 
0.0000 0.0000 0.0000 
0.0000 0.0000 0.0000 
0.0000 0.0000 0.0000 
0.0000 0.0000 0.0000 
0.0000 0.0000 0.0000 
0.0000 0.0000 0.0000 
0.0000 0.0000 0.0000 
0.0000 0.0000 0.0000 
0.0000 0.0000 0.0000 
0.0000 0.0000 0.0000 
0.0000 0.0000 0.0000 
0.0000 0.0000 0.0000 
0.0000 0.0000 0.0000 
0.0000 0.0000 0.0000 
0.0000 0.0000 0.0000 
0.0000 0.0000 0.0000 
0.0000 0.0000 0.0000 
0.0000 0.0000 0.0000 
0.0000 0.0000 0.0000 
0.0000 0.0000 0.0000 
0.0000 0.0000 0.0000 
0.0000 0.0000 0.0000 
0.0000 0.0000 0.0000 
0.0000 0.0000 0.0000 
0.0000 0.0000 0.0000 
0.0000 0.0000 0.0000 
0.0000 0.0000 0.0000 
0.0000 0.0000 0.0000 
0.0000 0.0000 0.0000 
0.0000 0.0000 0.0000 
0.0000 0.0000 0.0000 
0.0000 0.0000 0.0000 
0.0000 0.0000 0.0000 
0.0000 0.0000 0.0000 
0.0000 0.0000 0.0000 
0.0000 0.0000 0.0000 
0.0000 0.0000 0.0000 
0.0000 0.0000 0.0000 
0.0000 0.0000 0.0000 
0.0000 0.0000 0.0000 
0.0000 0.0000 0.0000 
0.0000 0.0000 0.0000 
0.0000 0.0000 0.0000 
0.0000 0.0000 0.0000 
0.0000 0.0000 0.0000 
0.0000 0.0000 0.0000 
0.0000 0.0000 0.0000 
0.0000 0.0000 0.0000 
0.0000 0.0000 0.0000 
0.0000 0.0000 0.0000 
0.0000 0.0000 0.0000 
0.0000 0.0000 0.0000 
0.0000 0.0000 0.0000 
0.0000 0.0000 0.0000 
0.0000 0.0000 0.0000 
0.0000 0.0000 0.0000 
0.0000 0.0000 0.0000 
0.0000 0.0000 0.0000 
0.0000 0.0000 0.0000 
0.0000 0.0000 0.0000 
0.0000 0.0000 0.0000 
0.0000 0.0000 0.0000 
0.0000 0.0000 0.0000 
0.0000 0.0000 0.0000 
0.0000 0.0000 0.0000 
0.0000 0.0000 0.0000 
0.0000 0.0000 0.0000 
0.0000 0.0000 0.0000 
0.0000 0.0000 0.0000 
0.0000 0.0000 0.0000 
0.0000 0.0000 0.0000 
0.0000 0.0000 0.0000 
0.0000 0.0000 0.0000 
0.0000 0.0000 0.0000 
0.0000 0.0000 0.0000 
0.0000 0.0000 0.0000 
0.0000 0.0000 0.0000 
0.0000 0.0000 0.0000 
0.0000 0.0000 0.0000 
0.0000 0.0000 0.0000 
0.0000 0.0000 0.0000 
0.0000 0.0000 0.0000 
0.0000 0.0000 0.0000 
0.0000 0.0000 0.0000 
0.0000 0.0000 0.0000 
0.0000 0.0000 0.0000 
0.0000 0.0000 0.0000 
0.0000 0.0000 0.0000 
0.0000 0.0000 0.0000 
0.0000 0.0000 0.0000 
0.0000 0.0000 0.0000 
0.0000 0.0000 0.0000 
0.0000 0.0000 0.0000 
0.0000 0.0000 0.0000 
0.0000 0.0000 0.0000 
0.0000 0.0000 0.0000 
0.0000 0.0000 0.0000 
0.0000 0.0000 0.0000 
0.0000 0.0000 0.0000 
0.0000 0.0000 0.0000 
0.0000 0.0000 0.0000 
0.0000 0.0000 0.0000 
0.0000 0.0000 0.0000 
0.0000 0.0000 0.0000 
0.0000 0.0000 0.0000 
0.0000 0.0000 0.0000 
0.0000 0.0000 0.0000 
0.0000 0.0000 0.0000 
0.0000 0.0000 0.0000 
0.0000 0.0000 0.0000 
0.0000 0.0000 0.0000 
0.0000 0.0000 0.0000 
0.0000 0.0000 0.0000 
0.0000 0.0000 0.0000 
0.0000 0.0000 0.0000 
0.0000 0.0000 0.0000 
0.0000 0.0000 0.0000 
0.0000 0.0000 0.0000 
0.0000 0.0000 0.0000 
0.0000 0.0000 0.0000 
0.0000 0.0000 0.0000 
0.0000 0.0000 0.0000 
0.0000 0.0000 0.0000 
0.0000 0.0000 0.0000 
0.0000 0.0000 0.0000 
0.0000 0.0000 0.0000 
0.0000 0.0000 0.0000 
0.0000 0.0000 0.0000 
0.0000 0.0000 0.0000 
0.0000 0.0000 0.0000 
0.0000 0.0000 0.0000 
0.0000 0.0000 0.0000 
0.0000 0.0000 0.0000 
0.0000 0.0000 0.0000 
0.0000 0.0000 0.0000 
0.0000 0.0000 0.0000 
0.0000 0.0000 0.0000 
0.0000 0.0000 0.0000 
0.0000 0.0000 0.0000 
0.0000 0.0000 0.0000 
0.0000 0.0000 0.0000 
0.0000 0.0000 0.0000 
0.0000 0.0000 0.0000 
0.0000 0.0000 0.0000 
0.0000 0.0000 0.0000 
0.0000 0.0000 0.0000 
0.0000 0.0000 0.0000 
0.0000 0.0000 0.0000 
0.0000 0.0000 0.0000 
0.0000 0.0000 0.0000 
0.0000 0.0000 0.0000 
0.0000 0.0000 0.0000 
0.0000 0.0000 0.0000 
0.0000 0.0000 0.0000 
0.0000 0.0000 0.0000 
0.0000 0.0000 0.0000 
0.0000 0.0000 0.0000 
0.0000 0.0000 0.0000 
0.0000 0.0000 0.0000 
0.0000 0.0000 0.0000 
0.0000 0.0000 0.0000 
0.0000 0.0000 0.0000 
0.0000 0.0000 0.0000 
0.0000 0.0000 0.0000 
0.0000 0.0000 0.0000 
0.0000 0.0000 0.0000 
0.0000 0.0000 0.0000 
0.0000 0.0000 0.0000 
0.0000 0.0000 0.0000 
0.0000 0.0000 0.0000 
0.0000 0.0000 0.0000 
0.0000 0.0000 0.0000 
0.0000 0.0000 0.0000 
0.0000 0.0000 0.0000 
0.0000 0.0000 0.0000 
0.0000 0.0000 0.0000 
0.0000 0.0000 0.0000 
0.0000 0.0000 0.0000 
0.0000 0.0000 0.0000 
0.0000 0.0000 0.0000 
0.0000 0.0000 0.0000 
0.0000 0.0000 0.0000 
0.0000 0.0000 0.0000 
0.0000 0.0000 0.0000 
0.0000 0.0000 0.0000 
0.0000 0.0000 0.0000 
0.0000 0.0000 0.0000 
0.0000 0.0000 0.0000 
0.0000 0.0000 0.0000 
0.0000 0.0000 0.0000 
0.0000 0.0000 0.0000 
0.0000 0.0000 0.0000 
0.0000 0.0000 0.0000 
0.0000 0.0000 0.0000 
0.0000 0.0000 0.0000 
0.0000 0.0000 0.0000 
0.0000 0.0000 0.0000 
0.0000 0.0000 0.0000 
0.0000 0.0000 0.0000 
0.0000 0.0000 0.0000 
0.0000 0.0000 0.0000 
0.0000 0.0000 0.0000 
0.0000 0.0000 0.0000 
0.0000 0.0000 0.0000 
0.0000 0.0000 0.0000 
0.0000 0.0000 0.0000 
0.0000 0.0000 0.0000 
0.0000 0.0000 0.0000 
0.0000 0.0000 0.0000 
0.0000 0.0000 0.0000 
0.0000 0.0000 0.0000 
0.0000 0.0000 0.0000 
0.0000 0.0000 0.0000 
0.0000 0.0000 0.0000 
0.0000 0.0000 0.0000 
0.0000 0.0000 0.0000 
0.0000 0.0000 0.0000 
0.0000 0.0000 0.0000 
0.0000 0.0000 0.0000 
0.0000 0.0000 0.0000 
0.0000 0.0000 0.0000 
0.0000 0.0000 0.0000 
0.0000 0.0000 0.0000 
0.0000 0.0000 0.0000 
0.0000 0.0000 0.0000 
0.0000 0.0000 0.0000 
0.0000 0.0000 0.0000 
0.0000 0.0000 0.0000 
0.0000 0.0000 0.0000 
0.0000 0.0000 0.0000 
0.0000 0.0000 0.0000 
0.0000 0.0000 0.0000 
0.0000 0.0000 0.0000 
0.0000 0.0000 0.0000 
0.0000 0.0000 0.0000 
0.0000 0.0000 0.0000 
0.0000 0.0000 0.0000 
0.0000 0.0000 0.0000 
0.0000 0.0000 0.0000 
0.0000 0.0000 0.0000 
0.0000 0.0000 0.0000 
0.0000 0.0000 0.0000 
0.0000 0.0000 0.0000 
0.0000 0.0000 0.0000 
0.0000 0.0000 0.0000 
0.0000 0.0000 0.0000 
0.0000 0.0000 0.0000 
0.0000 0.0000 0.0000 
0.0000 0.0000 0.0000 
0.0000 0.0000 0.0000 
0.0000 0.0000 0.0000 
0.0000 0.0000 0.0000 
0.0000 0.0000 0.0000 
0.0000 0.0000 0.0000 
0.0000 0.0000 0.0000 
0.0000 0.0000 0.0000 
0.0000 0.0000 0.0000 
0.0000 0.0000 0.0000 
0.0000 0.0000 0.0000 
0.0000 0.0000 0.0000 
0.0000 0.0000 0.0000 
0.0000 0.0000 0.0000 
0.0000 0.0000 0.0000 
0.0000 0.0000 0.0000 
0.0000 0.0000 0.0000 
0.0000 0.0000 0.0000 
0.0000 0.0000 0.0000 
0.0000 0.0000 0.0000 
0.0000 0.0000 0.0000 
0.0000 0.0000 0.0000 
0.0000 0.0000 0.0000 
0.0000 0.0000 0.0000 
0.0000 0.0000 0.0000 
0.0000 0.0000 0.0000 
0.0000 0.0000 0.0000 
0.0000 0.0000 0.0000 
0.0000 0.0000 0.0000 
0.0000 0.0000 0.0000 
0.0000 0.0000 0.0000 
0.0000 0.0000 0.0000 
0.0000 0.0000 0.0000 
0.0000 0.0000 0.0000 
0.0000 0.0000 0.0000 
0.0000 0.0000 0.0000 
0.0000 0.0000 0.0000 
0.0000 0.0000 0.0000 
0.0000 0.0000 0.0000 
0.0000 0.0000 0.0000 
0.0000 0.0000 0.0000 
0.0000 0.0000 0.0000 
0.0000 0.0000 0.0000 
0.0000 0.0000 0.0000 
0.0000 0.0000 0.0000 
0.0000 0.0000 0.0000 
0.0000 0.0000 0.0000 
0.0000 0.0000 0.0000 
0.0000 0.0000 0.0000 
0.0000 0.0000 0.0000 
0.0000 0.0000 0.0000 
0.0000 0.0000 0.0000 
0.0000 0.0000 0.0000 
0.0000 0.0000 0.0000 
0.0000 0.0000 0.0000 
0.0000 0.0000 0.0000 
0.0000 0.0000 0.0000 
0.0000 0.0000 0.0000 
0.0000 0.0000 0.0000 
0.0000 0.0000 0.0000 
0.0000 0.0000 0.0000 
0.0000 0.0000 0.0000 
0.0000 0.0000 0.0000 
0.0000 0.0000 0.0000 
0.0000 0.0000 0.0000 
0.0000 0.0000 0.0000 
0.0000 0.0000 0.0000 
0.0000 0.0000 0.0000 
0.0000 0.0000 0.0000 
0.0000 0.0000 0.0000 
0.0000 0.0000 0.0000 
0.0000 0.0000 0.0000 
0.0000 0.0000 0.0000 
0.0000 0.0000 0.0000 
0.0000 0.0000 0.0000 
0.0000 0.0000 0.0000 
0.0000 0.0000 0.0000 
0.0000 0.0000 0.0000 
0.0000 0.0000 0.0000 
0.0000 0.0000 0.0000 
0.0000 0.0000 0.0000 
0.0000 0.0000 0.0000 
0.0000 0.0000 0.0000 
0.0000 0.0000 0.0000 
0.0000 0.0000 0.0000 
0.0000 0.0000 0.0000 
0.0000 0.0000 0.0000 
0.0000 0.0000 0.0000 
0.0000 0.0000 0.0000 
0.0000 0.0000 0.0000 
0.0000 0.0000 0.0000 
0.0000 0.0000 0.0000 
0.0000 0.0000 0.0000 
0.0000 0.0000 0.0000 
0.0000 0.0000 0.0000 
0.0000 0.0000 0.0000 
0.0000 0.0000 0.0000 
0.0000 0.0000 0.0000 
0.0000 0.0000 0.0000 
0.0000 0.0000 0.0000 
0.0000 0.0000 0.0000 
0.0000 0.0000 0.0000 
0.0000 0.0000 0.0000 
0.0000 0.0000 0.0000 
0.0000 0.0000 0.0000 
0.0000 0.0000 0.0000 
0.0000 0.0000 0.0000 
0.0000 0.0000 0.0000 
0.0000 0.0000 0.0000 
0.0000 0.0000 0.0000 
0.0000 0.0000 0.0000 
0.0000 0.0000 0.0000 
0.0000 0.0000 0.0000 
0.0000 0.0000 0.0000 
0.0000 0.0000 0.0000 
0.0000 0.0000 0.0000 
0.0000 0.0000 0.0000 
0.0000 0.0000 0.0000 
0.0000 0.0000 0.0000 
0.0000 0.0000 0.0000 
0.0000 0.0000 0.0000 
0.0000 0.0000 0.0000 
0.0000 0.0000 0.0000 
0.0000 0.0000 0.0000 
0.0000 0.0000 0.0000 
0.0000 0.0000 0.0000 
0.0000 0.0000 0.0000 
0.0000 0.0000 0.0000 
0.0000 0.0000 0.0000 
0.0000 0.0000 0.0000 
0.0000 0.0000 0.0000 
0.0000 0.0000 0.0000 
0.0000 0.0000 0.0000 
0.0000 0.0000 0.0000 
0.0000 0.0000 0.0000 
0.0000 0.0000 0.0000 
0.0000 0.0000 0.0000 
0.0000 0.0000 0.0000 
0.0000 0.0000 0.0000 
0.0000 0.0000 0.0000 
0.0000 0.0000 0.0000 
0.0000 0.0000 0.0000 
0.0000 0.0000 0.0000 
0.0000 0.0000 0.0000 
0.0000 0.0000 0.0000 
0.0000 0.0000 0.0000 
0.0000 0.0000 0.0000 
0.0000 0.0000 0.0000 
0.0000 0.0000 0.0000 
0.0000 0.0000 0.0000 
0.0000 0.0000 0.0000 
0.0000 0.0000 0.0000 
0.0000 0.0000 0.0000 
0.0000 0.0000 0.0000 
0.0000 0.0000 0.0000 
0.0000 0.0000 0.0000 
0.0000 0.0000 0.0000 
0.0000 0.0000 0.0000 
0.0000 0.0000 0.0000 
0.0000 0.0000 0.0000 
0.0000 0.0000 0.0000 
0.0000 0.0000 0.0000 
0.0000 0.0000 0.0000 
0.0000 0.0000 0.0000 
0.0000 0.0000 0.0000 
0.0000 0.0000 0.0000 
0.0000 0.0000 0.0000 
0.0000 0.0000 0.0000 
0.0000 0.0000 0.0000 
0.0000 0.0000 0.0000 
0.0000 0.0000 0.0000 
0.0000 0.0000 0.0000 
0.0000 0.0000 0.0000 
0.0000 0.0000 0.0000 
0.0000 0.0000 0.0000 
0.0000 0.0000 0.0000 
0.0000 0.0000 0.0000 
0.0000 0.0000 0.0000 
0.0000 0.0000 0.0000 
0.0000 0.0000 0.0000 
0.0000 0.0000 0.0000 
0.0000 0.0000 0.0000 
0.0000 0.0000 0.0000 
0.0000 0.0000 0.0000 
0.0000 0.0000 0.0000 
0.0000 0.0000 0.0000 
0.0000 0.0000 0.0000 
0.0000 0.0000 0.0000 
0.0000 0.0000 0.0000 
0.0000 0.0000 0.0000 
0.0000 0.0000 0.0000 
0.0000 0.0000 0.0000 
0.0000 0.0000 0.0000 
0.0000 0.0000 0.0000 
0.0000 0.0000 0.0000 
0.0000 0.0000 0.0000 
0.0000 0.0000 0.0000 
0.0000 0.0000 0.0000 
0.0000 0.0000 0.0000 
0.0000 0.0000 0.0000 
0.0000 0.0000 0.0000 
0.0000 0.0000 0.0000 
0.0000 0.0000 0.0000 
0.0000 0.0000 0.0000 
0.0000 0.0000 0.0000 
0.0000 0.0000 0.0000 
0.0000 0.0000 0.0000 
0.0000 0.0000 0.0000 
0.0000 0.0000 0.0000 
0.0000 0.0000 0.0000 
0.0000 0.0000 0.0000 
0.0000 0.0000 0.0000 
0.0000 0.0000 0.0000 
0.0000 0.0000 0.0000 
0.0000 0.0000 0.0000 
0.0000 0.0000 0.0000 
0.0000 0.0000 0.0000 
0.0000 0.0000 0.0000 
0.0000 0.0000 0.0000 
0.0000 0.0000 0.0000 
0.0000 0.0000 0.0000 
0.0000 0.0000 0.0000 
0.0000 0.0000 0.0000 
0.0000 0.0000 0.0000 
0.0000 0.0000 0.0000 
0.0000 0.0000 0.0000 
0.0000 0.0000 0.0000 
0.0000 0.0000 0.0000 
0.0000 0.0000 0.0000 
0.0000 0.0000 0.0000 
0.0000 0.0000 0.0000 
0.0000 0.0000 0.0000 
0.0000 0.0000 0.0000 
0.0000 0.0000 0.0000 
0.0000 0.0000 0.0000 
0.0000 0.0000 0.0000 
0.0000 0.0000 0.0000 
0.0000 0.0000 0.0000 
0.0000 0.0000 0.0000 
0.0000 0.0000 0.0000 
0.0000 0.0000 0.0000 
0.0000 0.0000 0.0000 
0.0000 0.0000 0.0000 
0.0000 0.0000 0.0000 
0.0000 0.0000 0.0000 
0.0000 0.0000 0.0000 
0.0000 0.0000 0.0000 
0.0000 0.0000 0.0000 
0.0000 0.0000 0.0000 
0.0000 0.0000 0.0000 
0.0000 0.0000 0.0000 
0.0000 0.0000 0.0000 
0.0000 0.0000 0.0000 
0.0000 0.0000 0.0000 
0.0000 0.0000 0.0000 
0.0000 0.0000 0.0000 
0.0000 0.0000 0.0000 
0.0000 0.0000 0.0000 
0.0000 0.0000 0.0000 
0.0000 0.0000 0.0000 
0.0000 0.0000 0.0000 
0.0000 0.0000 0.0000 
0.0000 0.0000 0.0000 
0.0000 0.0000 0.0000 
0.0000 0.0000 0.0000 
0.0000 0.0000 0.0000 
0.0000 0.0000 0.0000 
0.0000 0.0000 0.0000 
0.0000 0.0000 0.0000 
0.0000 0.0000 0.0000 
0.0000 0.0000 0.0000 
0.0000 0.0000 0.0000 
0.0000 0.0000 0.0000 
0.0000 0.0000 0.0000 
0.0000 0.0000 0.0000 
0.0000 0.0000 0.0000 
0.0000 0.0000 0.0000 
0.0000 0.0000 0.0000 
0.0000 0.0000 0.0000 
0.0000 0.0000 0.0000 
0.0000 0.0000 0.0000 
0.0000 0.0000 0.0000 
0.0000 0.0000 0.0000 
0.0000 0.0000 0.0000 
0.0000 0.0000 0.0000 
0.0000 0.0000 0.0000 
0.0000 0.0000 0.0000 
0.0000 0.0000 0.0000 
0.0000 0.0000 0.0000 
0.0000 0.0000 0.0000 
0.0000 0.0000 0.0000 
0.0000 0.0000 0.0000 
0.0000 0.0000 0.0000 
0.0000 0.0000 0.0000 
0.0000 0.0000 0.0000 
0.0000 0.0000 0.0000 
0.0000 0.0000 0.0000 
0.0000 0.0000 0.0000 
0.0000 0.0000 0.0000 
0.0000 0.0000 0.0000 
0.0000 0.0000 0.0000 
0.0000 0.0000 0.0000 
0.0000 0.0000 0.0000 
0.0000 0.0000 0.0000 
0.0000 0.0000 0.0000 
0.0000 0.0000 0.0000 
0.0000 0.0000 0.0000 
0.0000 0.0000 0.0000 
0.0000 0.0000 0.0000 
0.0000 0.0000 0.0000 
0.0000 0.0000 0.0000 
0.0000 0.0000 0.0000 
0.0000 0.0000 0.0000 
0.0000 0.0000 0.0000 
0.0000 0.0000 0.0000 
0.0000 0.0000 0.0000 
0.0000 0.0000 0.0000 
0.0000 0.0000 0.0000 
0.0000 0.0000 0.0000 
0.0000 0.0000 0.0000 
0.0000 0.0000 0.0000 
0.0000 0.0000 0.0000 
0.0000 0.0000 0.0000 
0.0000 0.0000 0.0000 
0.0000 0.0000 0.0000 
0.0000 0.0000 0.0000 
0.0000 0.0000 0.0000 
0.0000 0.0000 0.0000 
0.0000 0.0000 0.0000 
0.0000 0.0000 0.0000 
0.0000 0.0000 0.0000 
0.0000 0.0000 0.0000 
0.0000 0.0000 0.0000 
0.0000 0.0000 0.0000 
0.0000 0.0000 0.0000 
0.0000 0.0000 0.0000 
0.0000 0.0000 0.0000 
0.0000 0.0000 0.0000 
0.0000 0.0000 0.0000 
0.0000 0.0000 0.0000 
0.0000 0.0000 0.0000 
0.0000 0.0000 0.0000 
0.0000 0.0000 0.0000 
0.0000 0.0000 0.0000 
0.0000 0.0000 0.0000 
0.0000 0.0000 0.0000 
0.0000 0.0000 0.0000 
0.0000 0.0000 0.0000 
0.0000 0.0000 0.0000 
0.0000 0.0000 0.0000 
0.0000 0.0000 0.0000 
0.0000 0.0000 0.0000 
0.0000 0.0000 0.0000 
0.0000 0.0000 0.0000 
0.0000 0.0000 0.0000 
0.0000 0.0000 0.0000 
0.0000 0.0000 0.0000 
0.0000 0.0000 0.0000 
0.0000 0.0000 0.0000 
0.0000 0.0000 0.0000 
0.0000 0.0000 0.0000 
0.0000 0.0000 0.0000 
0.0000 0.0000 0.0000 
0.0000 0.0000 0.0000 
0.0000 0.0000 0.0000 
0.0000 0.0000 0.0000 
0.0000 0.0000 0.0000 
0.0000 0.0000 0.0000 
0.0000 0.0000 0.0000 
0.0000 0.0000 0.0000 
0.0000 0.0000 0.0000 
0.0000 0.0000 0.0000 
0.0000 0.0000 0.0000 
0.0000 0.0000 0.0000 
0.0000 0.0000 0.0000 
0.0000 0.0000 0.0000 
0.0000 0.0000 0.0000 
0.0000 0.0000 0.0000 
0.0000 0.0000 0.0000 
0.0000 0.0000 0.0000 
0.0000 0.0000 0.0000 
0.0000 0.0000 0.0000 
0.0000 0.0000 0.0000 
0.0000 0.0000 0.0000 
0.0000 0.0000 0.0000 
0.0000 0.0000 0.0000 
0.0000 0.0000 0.0000 
0.0000 0.0000 0.0000 
0.0000 0.0000 0.0000 
0.0000 0.0000 0.0000 
0.0000 0.0000 0.0000 
0.0000 0.0000 0.0000 
0.0000 0.0000 0.0000 
0.0000 0.0000 0.0000 
0.0000 0.0000 0.0000 
0.0000 0.0000 0.0000 
0.0000 0.0000 0.0000 
0.0000 0.0000 0.0000 
0.0000 0.0000 0.0000 
0.0000 0.0000 0.0000 
0.0000 0.0000 0.0000 
0.0000 0.0000 0.0000 
0.0000 0.0000 0.0000 
0.0000 0.0000 0.0000 
0.0000 0.0000 0.0000 
0.0000 0.0000 0.0000 
0.0000 0.0000 0.0000 
0.0000 0.0000 0.0000 
0.0000 0.0000 0.0000 
0.0000 0.0000 0.0000 
0.0000 0.0000 0.0000 
0.0000 0.0000 0.0000 
0.0000 0.0000 0.0000 
0.0000 0.0000 0.0000 
0.0000 0.0000 0.0000 
0.0000 0.0000 0.0000 
0.0000 0.0000 0.0000 
0.0000 0.0000 0.0000 
0.0000 0.0000 0.0000 
0.0000 0.0000 0.0000 
0.0000 0.0000 0.0000 
0.0000 0.0000 0.0000 
0.0000 0.0000 0.0000 
0.0000 0.0000 0.0000 
0.0000 0.0000 0.0000 
0.0000 0.0000 0.0000 
0.0000 0.0000 0.0000 
0.0000 0.0000 0.0000 
0.0000 0.0000 0.0000 
0.0000 0.0000 0.0000 
0.0000 0.0000 0.0000 
0.0000 0.0000 0.0000 
0.0000 0.0000 0.0000 
0.0000 0.0000 0.0000 
0.0000 0.0000 0.0000 
0.0000 0.0000 0.0000 
0.0000 0.0000 0.0000 
0.0000 0.0000 0.0000 
0.0000 0.0000 0.0000 
0.0000 0.0000 0.0000 
0.0000 0.0000 0.0000 
0.0000 0.0000 0.0000 
0.0000 0.0000 0.0000 
0.0000 0.0000 0.0000 
0.0000 0.0000 0.0000 
0.0000 0.0000 0.0000 
0.0000 0.0000 0.0000 
0.0000 0.0000 0.0000 
0.0000 0.0000 0.0000 
0.0000 0.0000 0.0000 
0.0000 0.0000 0.0000 
0.0000 0.0000 0.0000 
0.0000 0.0000 0.0000 
0.0000 0.0000 0.0000 
0.0000 0.0000 0.0000 
0.0000 0.0000 0.0000 
0.0000 0.0000 0.0000 
0.0000 0.0000 0.0000 
0.0000 0.0000 0.0000 
0.0000 0.0000 0.0000 
0.0000 0.0000 0.0000 
0.0000 0.0000 0.0000 
0.0000 0.0000 0.0000 
0.0000 0.0000 0.0000 
0.0000 0.0000 0.0000 
0.0000 0.0000 0.0000 
0.0000 0.0000 0.0000 
0.0000 0.0000 0.0000 
0.0000 0.0000 0.0000 
0.0000 0.0000 0.0000 
0.0000 0.0000 0.0000 
0.0000 0.0000 0.0000 
0.0000 0.0000 0.0000 
0.0000 0.0000 0.0000 
0.0000 0.0000 0.0000 
0.0000 0.0000 0.0000 
0.0000 0.0000 0.0000 
0.0000 0.0000 0.0000 
0.0000 0.0000 0.0000 
0.0000 0.0000 0.0000 
0.0000 0.0000 0.0000 
0.0000 0.0000 0.0000 
0.0000 0.0000 0.0000 
0.0000 0.0000 0.0000 
0.0000 0.0000 0.0000 
0.0000 0.0000 0.0000 
0.0000 0.0000 0.0000 
0.0000 0.0000 0.0000 
0.0000 0.0000 0.0000 
0.0000 0.0000 0.0000 
0.0000 0.0000 0.0000 
0.0000 0.0000 0.0000 
0.0000 0.0000 0.0000 
0.0000 0.0000 0.0000 
0.0000 0.0000 0.0000 
0.0000 0.0000 0.0000 
0.0000 0.0000 0.0000 
0.0000 0.0000 0.0000 
0.0000 0.0000 0.0000 
0.0000 0.0000 0.0000 
0.0000 0.0000 0.0000 
0.0000 0.0000 0.0000 
0.0000 0.0000 0.0000 
0.0000 0.0000 0.0000 
0.0000 0.0000 0.0000 
0.0000 0.0000 0.0000 
0.0000 0.0000 0.0000 
0.0000 0.0000 0.0000 
0.0000 0.0000 0.0000 
0.0000 0.0000 0.0000 
0.0000 0.0000 0.0000 
0.0000 0.0000 0.0000 
0.0000 0.0000 0.0000 
0.0000 0.0000 0.0000 
0.0000 0.0000 0.0000 
0.0000 0.0000 0.0000 
0.0000 0.0000 0.0000 
0.0000 0.0000 0.0000 
0.0000 0.0000 0.0000 
0.0000 0.0000 0.0000 
0.0000 0.0000 0.0000 
0.0000 0.0000 0.0000 
0.0000 0.0000 0.0000 
0.0000 0.0000 0.0000 
0.0000 0.0000 0.0000 
0.0000 0.0000 0.0000 
0.0000 0.0000 0.0000 
0.0000 0.0000 0.0000 
0.0000 0.0000 0.0000 
0.0000 0.0000 0.0000 
0.0000 0.0000 0.0000 
0.0000 0.0000 0.0000 
0.0000 0.0000 0.0000 
0.0000 0.0000 0.0000 
0.0000 0.0000 0.0000 
0.0000 0.0000 0.0000 
0.0000 0.0000 0.0000 
0.0000 0.0000 0.0000 
0.0000 0.0000 0.0000 
0.0000 0.0000 0.0000 
0.0000 0.0000 0.0000 
0.0000 0.0000 0.0000 
0.0000 0.0000 0.0000 
0.0000 0.0000 0.0000 
0.0000 0.0000 0.0000 
0.0000 0.0000 0.0000 
0.0000 0.0000 0.0000 
0.0000 0.0000 0.0000 
0.0000 0.0000 0.0000 
0.0000 0.0000 0.0000 
0.0000 0.0000 0.0000 
0.0000 0.0000 0.0000 
0.0000 0.0000 0.0000 
0.0000 0.0000 0.0000 
0.0000 0.0000 0.0000 
0.0000 0.0000 0.0000 
0.0000 0.0000 0.0000 
0.0000 0.0000 0.0000 
0.0000 0.0000 0.0000 
0.0000 0.0000 0.0000 
0.0000 0.0000 0.0000 
0.0000 0.0000 0.0000 
0.0000 0.0000 0.0000 
0.0000 0.0000 0.0000 
0.0000 0.0000 0.0000 
0.0000 0.0000 0.0000 
0.0000 0.0000 0.0000 
0.0000 0.0000 0.0000 
0.0000 0.0000 0.0000 
0.0000 0.0000 0.0000 
0.0000 0.0000 0.0000 
0.0000 0.0000 0.0000 
0.0000 0.0000 0.0000 
0.0000 0.0000 0.0000 
0.0000 0.0000 0.0000 
0.0000 0.0000 0.0000 
0.0000 0.0000 0.0000 
0.0000 0.0000 0.0000 
0.0000 0.0000 0.0000 
0.0000 0.0000 0.0000 
0.0000 0.0000 0.0000 
0.0000 0.0000 0.0000 
0.0000 0.0000 0.0000 
0.0000 0.0000 0.0000 
0.0000 0.0000 0.0000 
0.0000 0.0000 0.0000 
0.0000 0.0000 0.0000 
0.0000 0.0000 0.0000 
0.0000 0.0000 0.0000 
0.0000 0.0000 0.0000 
0.0000 0.0000 0.0000 
0.0000 0.0000 0.0000 
0.0000 0.0000 0.0000 
0.0000 0.0000 0.0000 
0.0000 0.0000 0.0000 
0.0000 0.0000 0.0000 
0.0000 0.0000 0.0000 
0.0000 0.0000 0.0000 
0.0000 0.0000 0.0000 
0.0000 0.0000 0.0000 
0.0000 0.0000 0.0000 
0.0000 0.0000 0.0000 
0.0000 0.0000 0.0000 
0.0000 0.0000 0.0000 
0.0000 0.0000 0.0000 
0.0000 0.0000 0.0000 
0.0000 0.0000 0.0000 
0.0000 0.0000 0.0000 
0.0000 0.0000 0.0000 
0.0000 0.0000 0.0000 
0.0000 0.0000 0.0000 
0.0000 0.0000 0.0000 
0.0000 0.0000 0.0000 
0.0000 0.0000 0.0000 
0.0000 0.0000 0.0000 
0.0000 0.0000 0.0000 
0.0000 0.0000 0.0000 
0.0000 0.0000 0.0000 
0.0000 0.0000 0.0000 
0.0000 0.0000 0.0000 
0.0000 0.0000 0.0000 
0.0000 0.0000 0.0000 
0.0000 0.0000 0.0000 
0.0000 0.0000 0.0000 
0.0000 0.0000 0.0000 
0.0000 0.0000 0.0000 
0.0000 0.0000 0.0000 
0.0000 0.0000 0.0000 
0.0000 0.0000 0.0000 
0.0000 0.0000 0.0000 
0.0000 0.0000 0.0000 
0.0000 0.0000 0.0000 
0.0000 0.0000 0.0000 
0.0000 0.0000 0.0000 
0.0000 0.0000 0.0000 
0.0000 0.0000 0.0000 
0.0000 0.0000 0.0000 
0.0000 0.0000 0.0000 
0.0000 0.0000 0.0000 
0.0000 0.0000 0.0000 
0.0000 0.0000 0.0000 
0.0000 0.0000 0.0000 
0.0000 0.0000 0.0000 
0.0000 0.0000 0.0000 
0.0000 0.0000 0.0000 
0.0000 0.0000 0.0000 
0.0000 0.0000 0.0000 
0.0000 0.0000 0.0000 
0.0000 0.0000 0.0000 
0.0000 0.0000 0.0000 
0.0000 0.0000 0.0000 
0.0000 0.0000 0.0000 
0.0000 0.0000 0.0000 
0.0000 0.0000 0.0000 
0.0000 0.0000 0.0000 
0.0000 0.0000 0.0000 
0.0000 0.0000 0.0000 
0.0000 0.0000 0.0000 
0.0000 0.0000 0.0000 
0.0000 0.0000 0.0000 
0.0000 0.0000 0.0000 
0.0000 0.0000 0.0000 
0.0000 0.0000 0.0000 
0.0000 0.0000 0.0000 
0.0000 0.0000 0.0000 
0.0000 0.0000 0.0000 
0.0000 0.0000 0.0000 
0.0000 0.0000 0.0000 
0.0000 0.0000 0.0000 
0.0000 0.0000 0.0000 
0.0000 0.0000 0.0000 
0.0000 0.0000 0.0000 
0.0000 0.0000 0.0000 
0.0000 0.0000 0.0000 
0.0000 0.0000 0.0000 
0.0000 0.0000 0.0000 
0.0000 0.0000 0.0000 
0.0000 0.0000 0.0000 
0.0000 0.0000 0.0000 
0.0000 0.0000 0.0000 
0.0000 0.0000 0.0000 
0.0000 0.0000 0.0000 
0.0000 0.0000 0.0000 
0.0000 0.0000 0.0000 
0.0000 0.0000 0.0000 
0.0000 0.0000 0.0000 
0.0000 0.0000 0.0000 
0.0000 0.0000 0.0000 
0.0000 0.0000 0.0000 
0.0000 0.0000 0.0000 
0.0000 0.0000 0.0000 
0.0000 0.0000 0.0000 
0.0000 0.0000 0.0000 
0.0000 0.0000 0.0000 
0.0000 0.0000 0.0000 
0.0000 0.0000 0.0000 
0.0000 0.0000 0.0000 
0.0000 0.0000 0.0000 
0.0000 0.0000 0.0000 
0.0000 0.0000 0.0000 
0.0000 0.0000 0.0000 
0.0000 0.0000 0.0000 
0.0000 0.0000 0.0000 
0.0000 0.0000 0.0000 
0.0000 0.0000 0.0000 
0.0000 0.0000 0.0000 
0.0000 0.0000 0.0000 
0.0000 0.0000 0.0000 
0.0000 0.0000 0.0000 
0.0000 0.0000 0.0000 
0.0000 0.0000 0.0000 
0.0000 0.0000 0.0000 
0.0000 0.0000 0.0000 
0.0000 0.0000 0.0000 
0.0000 0.0000 0.0000 
0.0000 0.0000 0.0000 
0.0000 0.0000 0.0000 
0.0000 0.0000 0.0000 
0.0000 0.0000 0.0000 
0.0000 0.0000 0.0000 
0.0000 0.0000 0.0000 
0.0000 0.0000 0.0000 
0.0000 0.0000 0.0000 
0.0000 0.0000 0.0000 
0.0000 0.0000 0.0000 
0.0000 0.0000 0.0000 
0.0000 0.0000 0.0000 
0.0000 0.0000 0.0000 
0.0000 0.0000 0.0000 
0.0000 0.0000 0.0000 
0.0000 0.0000 0.0000 
0.0000 0.0000 0.0000 
0.0000 0.0000 0.0000 
0.0000 0.0000 0.0000 
0.0000 0.0000 0.0000 
0.0000 0.0000 0.0000 
0.0000 0.0000 0.0000 
0.0000 0.0000 0.0000 
0.0000 0.0000 0.0000 
0.0000 0.0000 0.0000 
0.0000 0.0000 0.0000 
0.0000 0.0000 0.0000 
0.0000 0.0000 0.0000 
0.0000 0.0000 0.0000 
0.0000 0.0000 0.0000 
0.0000 0.0000 0.0000 
0.0000 0.0000 0.0000 
0.0000 0.0000 0.0000 
0.0000 0.0000 0.0000 
0.0000 0.0000 0.0000 
0.0000 0.0000 0.0000 
0.0000 0.0000 0.0000 
0.0000 0.0000 0.0000 
0.0000 0.0000 0.0000 
0.0000 0.0000 0.0000 
0.0000 0.0000 0.0000 
0.0000 0.0000 0.0000 
0.0000 0.0000 0.0000 
0.0000 0.0000 0.0000 
0.0000 0.0000 0.0000 
0.0000 0.0000 0.0000 
0.0000 0.0000 0.0000 
0.0000 0.0000 0.0000 
0.0000 0.0000 0.0000 
0.0000 0.0000 0.0000 
0.0000 0.0000 0.0000 
0.0000 0.0000 0.0000 
0.0000 0.0000 0.0000 
0.0000 0.0000 0.0000 
0.0000 0.0000 0.0000 
0.0000 0.0000 0.0000 
0.0000 0.0000 0.0000 
0.0000 0.0000 0.0000 
0.0000 0.0000 0.0000 
0.0000 0.0000 0.0000 
0.0000 0.0000 0.0000 
0.0000 0.0000 0.0000 
0.0000 0.0000 0.0000 
0.0000 0.0000 0.0000 
0.0000 0.0000 0.0000 
0.0000 0.0000 0.0000 
0.0000 0.0000 0.0000 
0.0000 0.0000 0.0000 
0.0000 0.0000 0.0000 
0.0000 0.0000 0.0000 
0.0000 0.0000 0.0000 
0.0000 0.0000 0.0000 
0.0000 0.0000 0.0000 
0.0000 0.0000 0.0000 
0.0000 0.0000 0.0000 
0.0000 0.0000 0.0000 
0.0000 0.0000 0.0000 
0.0000 0.0000 0.0000 
0.0000 0.0000 0.0000 
0.0000 0.0000 0.0000 
0.0000 0.0000 0.0000 
0.0000 0.0000 0.0000 
0.0000 0.0000 0.0000 
0.0000 0.0000 0.0000 
0.0000 0.0000 0.0000 
0.0000 0.0000 0.0000 
0.0000 0.0000 0.0000 
0.0000 0.0000 0.0000 
0.0000 0.0000 0.0000 
0.0000 0.0000 0.0000 
0.0000 0.0000 0.0000 
0.0000 0.0000 0.0000 
0.0000 0.0000 0.0000 
0.0000 0.0000 0.0000 
0.0000 0.0000 0.0000 
0.0000 0.0000 0.0000 
0.0000 0.0000 0.0000 
0.0000 0.0000 0.0000 
0.0000 0.0000 0.0000 
0.0000 0.0000 0.0000 
0.0000 0.0000 0.0000 
0.0000 0.0000 0.0000 
0.0000 0.0000 0.0000 
0.0000 0.0000 0.0000 
0.0000 0.0000 0.0000 
0.0000 0.0000 0.0000 
0.0000 0.0000 0.0000 
0.0000 0.0000 0.0000 
0.0000 0.0000 0.0000 
0.0000 0.0000 0.0000 
0.0000 0.0000 0.0000 
0.0000 0.0000 0.0000 
0.0000 0.0000 0.0000 
0.0000 0.0000 0.0000 
0.0000 0.0000 0.0000 
0.0000 0.0000 0.0000 
0.0000 0.0000 0.0000 
0.0000 0.0000 0.0000 
0.0000 0.0000 0.0000 
0.0000 0.0000 0.0000 
0.0000 0.0000 0.0000 
0.0000 0.0000 0.0000 
0.0000 0.0000 0.0000 
0.0000 0.0000 0.0000 
0.0000 0.0000 0.0000 
0.0000 0.0000 0.0000 
0.0000 0.0000 0.0000 
0.0000 0.0000 0.0000 
0.0000 0.0000 0.0000 
0.0000 0.0000 0.0000 
0.0000 0.0000 0.0000 
0.0000 0.0000 0.0000 
0.0000 0.0000 0.0000 
0.0000 0.0000 0.0000 
0.0000 0.0000 0.0000 
0.0000 0.0000 0.0000 
0.0000 0.0000 0.0000 
0.0000 0.0000 0.0000 
0.0000 0.0000 0.0000 
0.0000 0.0000 0.0000 
0.0000 0.0000 0.0000 
0.0000 0.0000 0.0000 
0.0000 0.0000 0.0000 
0.0000 0.0000 0.0000 
0.0000 0.0000 0.0000 
0.0000 0.0000 0.0000 
0.0000 0.0000 0.0000 
0.0000 0.0000 0.0000 
0.0000 0.0000 0.0000 
0.0000 0.0000 0.0000 
0.0000 0.0000 0.0000 
0.0000 0.0000 0.0000 
0.0000 0.0000 0.0000 
0.0000 0.0000 0.0000 
0.0000 0.0000 0.0000 
0.0000 0.0000 0.0000 
0.0000 0.0000 0.0000 
0.0000 0.0000 0.0000 
0.0000 0.0000 0.0000 
0.0000 0.0000 0.0000 
0.0000 0.0000 0.0000 
0.0000 0.0000 0.0000 
0.0000 0.0000 0.0000 
0.0000 0.0000 0.0000 
0.0000 0.0000 0.0000 
0.0000 0.0000 0.0000 
0.0000 0.0000 0.0000 
0.0000 0.0000 0.0000 
0.0000 0.0000 0.0000 
0.0000 0.0000 0.0000 
0.0000 0.0000 0.0000 
0.0000 0.0000 0.0000 
0.0000 0.0000 0.0000 
0.0000 0.0000 0.0000 
0.0000 0.0000 0.0000 
0.0000 0.0000 0.0000 
0.0000 0.0000 0.0000 
0.0000 0.0000 0.0000 
0.0000 0.0000 0.0000 
0.0000 0.0000 0.0000 
0.0000 0.0000 0.0000 
0.0000 0.0000 0.0000 
0.0000 0.0000 0.0000 
0.0000 0.0000 0.0000 
0.0000 0.0000 0.0000 
0.0000 0.0000 0.0000 
0.0000 0.0000 0.0000 
0.0000 0.0000 0.0000 
0.0000 0.0000 0.0000 
0.0000 0.0000 0.0000 
0.0000 0.0000 0.0000 
0.0000 0.0000 0.0000 
0.0000 0.0000 0.0000 
0.0000 0.0000 0.0000 
0.0000 0.0000 0.0000 
0.0000 0.0000 0.0000 
0.0000 0.0000 0.0000 
0.0000 0.0000 0.0000 
0.0000 0.0000 0.0000 
0.0000 0.0000 0.0000 
0.0000 0.0000 0.0000 
0.0000 0.0000 0.0000 
0.0000 0.0000 0.0000 
0.0000 0.0000 0.0000 
0.0000 0.0000 0.0000 
0.0000 0.0000 0.0000 
0.0000 0.0000 0.0000 
0.0000 0.0000 0.0000 
0.0000 0.0000 0.0000 
0.0000 0.0000 0.0000 
0.0000 0.0000 0.0000 
0.0000 0.0000 0.0000 
0.0000 0.0000 0.0000 
0.0000 0.0000 0.0000 
0.0000 0.0000 0.0000 
0.0000 0.0000 0.0000 
0.0000 0.0000 0.0000 
0.0000 0.0000 0.0000 
0.0000 0.0000 0.0000 
0.0000 0.0000 0.0000 
0.0000 0.0000 0.0000 
0.0000 0.0000 0.0000 
0.0000 0.0000 0.0000 
0.0000 0.0000 0.0000 
0.0000 0.0000 0.0000 
0.0000 0.0000 0.0000 
0.0000 0.0000 0.0000 
0.0000 0.0000 0.0000 
0.0000 0.0000 0.0000 
0.0000 0.0000 0.0000 
0.0000 0.0000 0.0000 
0.0000 0.0000 0.0000 
0.0000 0.0000 0.0000 
0.0000 0.0000 0.0000 
0.0000 0.0000 0.0000 
0.0000 0.0000 0.0000 
0.0000 0.0000 0.0000 
0.0000 0.0000 0.0000 
0.0000 0.0000 0.0000 
0.0000 0.0000 0.0000 
0.0000 0.0000 0.0000 
0.0000 0.0000 0.0000 
0.0000 0.0000 0.0000 
0.0000 0.0000 0.0000 
0.0000 0.0000 0.0000 
0.0000 0.0000 0.0000 
0.0000 0.0000 0.0000 
0.0000 0.0000 0.0000 
0.0000 0.0000 0.0000 
0.0000 0.0000 0.0000 
0.0000 0.0000 0.0000 
0.0000 0.0000 0.0000 
0.0000 0.0000 0.0000 
0.0000 0.0000 0.0000 
0.0000 0.0000 0.0000 
0.0000 0.0000 0.0000 
0.0000 0.0000 0.0000 
0.0000 0.0000 0.0000 
0.0000 0.0000 0.0000 
0.0000 0.0000 0.0000 
0.0000 0.0000 0.0000 
0.0000 0.0000 0.0000 
0.0000 0.0000 0.0000 
0.0000 0.0000 0.0000 
0.0000 0.0000 0.0000 
0.0000 0.0000 0.0000 
0.0000 0.0000 0.0000 
0.0000 0.0000 0.0000 
0.0000 0.0000 0.0000 
0.0000 0.0000 0.0000 
0.0000 0.0000 0.0000 
0.0000 0.0000 0.0000 
0.0000 0.0000 0.0000 
0.0000 0.0000 0.0000 
0.0000 0.0000 0.0000 
0.0000 0.0000 0.0000 
0.0000 0.0000 0.0000 
0.0000 0.0000 0.0000 
0.0000 0.0000 0.0000 
0.0000 0.0000 0.0000 
0.0000 0.0000 0.0000 
0.0000 0.0000 0.0000 
0.0000 0.0000 0.0000 
0.0000 0.0000 0.0000 
0.0000 0.0000 0.0000 
0.0000 0.0000 0.0000 
0.0000 0.0000 0.0000 
0.0000 0.0000 0.0000 
0.0000 0.0000 0.0000 
0.0000 0.0000 0.0000 
0.0000 0.0000 0.0000 
0.0000 0.0000 0.0000 
0.0000 0.0000 0.0000 
0.0000 0.0000 0.0000 
0.0000 0.0000 0.0000 
0.0000 0.0000 0.0000 
0.0000 0.0000 0.0000 
0.0000 0.0000 0.0000 
0.0000 0.0000 0.0000 
0.0000 0.0000 0.0000 
0.0000 0.0000 0.0000 
0.0000 0.0000 0.0000 
0.0000 0.0000 0.0000 
0.0000 0.0000 0.0000 
0.0000 0.0000 0.0000 
0.0000 0.0000 0.0000 
0.0000 0.0000 0.0000 
0.0000 0.0000 0.0000 
0.0000 0.0000 0.0000 
0.0000 0.0000 0.0000 
0.0000 0.0000 0.0000 
0.0000 0.0000 0.0000 
0.0000 0.0000 0.0000 
0.0000 0.0000 0.0000 
0.0000 0.0000 0.0000 
0.0000 0.0000 0.0000 
0.0000 0.0000 0.0000 
0.0000 0.0000 0.0000 
0.0000 0.0000 0.0000 
0.0000 0.0000 0.0000 
0.0000 0.0000 0.0000 
0.0000 0.0000 0.0000 
0.0000 0.0000 0.0000 
0.0000 0.0000 0.0000 
0.0000 0.0000 0.0000 
0.0000 0.0000 0.0000 
0.0000 0.0000 0.0000 
0.0000 0.0000 0.0000 
0.0000 0.0000 0.0000 
0.0000 0.0000 0.0000 
0.0000 0.0000 0.0000 
0.0000 0.0000 0.0000 
0.0000 0.0000 0.0000 
0.0000 0.0000 0.0000 
0.0000 0.0000 0.0000 
0.0000 0.0000 0.0000 
0.0000 0.0000 0.0000 
0.0000 0.0000 0.0000 
0.0000 0.0000 0.0000 
0.0000 0.0000 0.0000 
0.0000 0.0000 0.0000 
0.0000 0.0000 0.0000 
0.0000 0.0000 0.0000 
0.0000 0.0000 0.0000 
0.0000 0.0000 0.0000 
0.0000 0.0000 0.0000 
0.0000 0.0000 0.0000 
0.0000 0.0000 0.0000 
0.0000 0.0000 0.0000 
0.0000 0.0000 0.0000 
0.0000 0.0000 0.0000 
0.0000 0.0000 0.0000 
0.0000 0.0000 0.0000 
0.0000 0.0000 0.0000 
0.0000 0.0000 0.0000 
0.0000 0.0000 0.0000 
0.0000 0.0000 0.0000 
0.0000 0.0000 0.0000 
0.0000 0.0000 0.0000 
0.0000 0.0000 0.0000 
0.0000 0.0000 0.0000 
0.0000 0.0000 0.0000 
0.0000 0.0000 0.0000 
0.0000 0.0000 0.0000 
0.0000 0.0000 0.0000 
0.0000 0.0000 0.0000 
0.0000 0.0000 0.0000 
0.0000 0.0000 0.0000 
0.0000 0.0000 0.0000 
0.0000 0.0000 0.0000 
0.0000 0.0000 0.0000 
0.0000 0.0000 0.0000 
0.0000 0.0000 0.0000 
0.0000 0.0000 0.0000 
0.0000 0.0000 0.0000 
0.0000 0.0000 0.0000 
0.0000 0.0000 0.0000 
0.0000 0.0000 0.0000 
0.0000 0.0000 0.0000 
0.0000 0.0000 0.0000 
0.0000 0.0000 0.0000 
0.0000 0.0000 0.0000 
0.0000 0.0000 0.0000 
0.0000 0.0000 0.0000 
0.0000 0.0000 0.0000 
0.0000 0.0000 0.0000 
0.0000 0.0000 0.0000 
0.0000 0.0000 0.0000 
0.0000 0.0000 0.0000 
0.0000 0.0000 0.0000 
0.0000 0.0000 0.0000 
0.0000 0.0000 0.0000 
0.0000 0.0000 0.0000 
0.0000 0.0000 0.0000 
0.0000 0.0000 0.0000 
0.0000 0.0000 0.0000 
0.0000 0.0000 0.0000 
0.0000 0.0000 0.0000 
0.0000 0.0000 0.0000 
0.0000 0.0000 0.0000 
0.0000 0.0000 0.0000 
0.0000 0.0000 0.0000 
0.0000 0.0000 0.0000 
0.0000 0.0000 0.0000 
0.0000 0.0000 0.0000 
0.0000 0.0000 0.0000 
0.0000 0.0000 0.0000 
0.0000 0.0000 0.0000 
0.0000 0.0000 0.0000 
0.0000 0.0000 0.0000 
0.0000 0.0000 0.0000 
0.0000 0.0000 0.0000 
0.0000 0.0000 0.0000 
0.0000 0.0000 0.0000 
0.0000 0.0000 0.0000 
0.0000 0.0000 0.0000 
0.0000 0.0000 0.0000 
0.0000 0.0000 0.0000 
0.0000 0.0000 0.0000 
0.0000 0.0000 0.0000 
0.0000 0.0000 0.0000 
0.0000 0.0000 0.0000 
0.0000 0.0000 0.0000 
0.0000 0.0000 0.0000 
0.0000 0.0000 0.0000 
0.0000 0.0000 0.0000 
0.0000 0.0000 0.0000 
0.0000 0.0000 0.0000 
0.0000 0.0000 0.0000 
0.0000 0.0000 0.0000 
0.0000 0.0000 0.0000 
0.0000 0.0000 0.0000 
0.0000 0.0000 0.0000 
0.0000 0.0000 0.0000 
0.0000 0.0000 0.0000 
0.0000 0.0000 0.0000 
0.0000 0.0000 0.0000 
0.0000 0.0000 0.0000 
0.0000 0.0000 0.0000 
0.0000 0.0000 0.0000 
0.0000 0.0000 0.0000 
0.0000 0.0000 0.0000 
0.0000 0.0000 0.0000 
0.0000 0.0000 0.0000 
0.0000 0.0000 0.0000 
0.0000 0.0000 0.0000 
0.0000 0.0000 0.0000 
0.0000 0.0000 0.0000 
0.0000 0.0000 0.0000 
0.0000 0.0000 0.0000 
0.0000 0.0000 0.0000 
0.0000 0.0000 0.0000 
0.0000 0.0000 0.0000 
0.0000 0.0000 0.0000 
0.0000 0.0000 0.0000 
0.0000 0.0000 0.0000 
0.0000 0.0000 0.0000 
0.0000 0.0000 0.0000 
0.0000 0.0000 0.0000 
0.0000 0.0000 0.0000 
0.0000 0.0000 0.0000 
0.0000 0.0000 0.0000 
0.0000 0.0000 0.0000 
0.0000 0.0000 0.0000 
0.0000 0.0000 0.0000 
0.0000 0.0000 0.0000 
0.0000 0.0000 0.0000 
0.0000 0.0000 0.0000 
0.0000 0.0000 0.0000 
0.0000 0.0000 0.0000 
0.0000 0.0000 0.0000 
0.0000 0.0000 0.0000 
0.0000 0.0000 0.0000 
0.0000 0.0000 0.0000 
0.0000 0.0000 0.0000 
0.0000 0.0000 0.0000 
0.0000 0.0000 0.0000 
0.0000 0.0000 0.0000 
0.0000 0.0000 0.0000 
0.0000 0.0000 0.0000 
0.0000 0.0000 0.0000 
0.0000 0.0000 0.0000 
0.0000 0.0000 0.0000 
0.0000 0.0000 0.0000 
0.0000 0.0000 0.0000 
0.0000 0.0000 0.0000 
0.0000 0.0000 0.0000 
0.0000 0.0000 0.0000 
0.0000 0.0000 0.0000 
0.0000 0.0000 0.0000 
0.0000 0.0000 0.0000 
0.0000 0.0000 0.0000 
0.0000 0.0000 0.0000 
0.0000 0.0000 0.0000 
0.0000 0.0000 0.0000 
0.0000 0.0000 0.0000 
0.0000 0.0000 0.0000 
0.0000 0.0000 0.0000 
0.0000 0.0000 0.0000 
0.0000 0.0000 0.0000 
0.0000 0.0000 0.0000 
0.0000 0.0000 0.0000 
0.0000 0.0000 0.0000 
0.0000 0.0000 0.0000 
0.0000 0.0000 0.0000 
0.0000 0.0000 0.0000 
0.0000 0.0000 0.0000 
0.0000 0.0000 0.0000 
0.0000 0.0000 0.0000 
0.0000 0.0000 0.0000 
0.0000 0.0000 0.0000 
0.0000 0.0000 0.0000 
0.0000 0.0000 0.0000 
0.0000 0.0000 0.0000 
0.0000 0.0000 0.0000 
0.0000 0.0000 0.0000 
0.0000 0.0000 0.0000 
0.0000 0.0000 0.0000 
0.0000 0.0000 0.0000 
0.0000 0.0000 0.0000 
0.0000 0.0000 0.0000 
0.0000 0.0000 0.0000 
0.0000 0.0000 0.0000 
0.0000 0.0000 0.0000 
0.0000 0.0000 0.0000 
0.0000 0.0000 0.0000 
0.0000 0.0000 0.0000 
0.0000 0.0000 0.0000 
0.0000 0.0000 0.0000 
0.0000 0.0000 0.0000 
0.0000 0.0000 0.0000 
0.0000 0.0000 0.0000 
0.0000 0.0000 0.0000 
0.0000 0.0000 0.0000 
0.0000 0.0000 0.0000 
0.0000 0.0000 0.0000 
0.0000 0.0000 0.0000 
0.0000 0.0000 0.0000 
0.0000 0.0000 0.0000 
0.0000 0.0000 0.0000 
0.0000 0.0000 0.0000 
0.0000 0.0000 0.0000 
0.0000 0.0000 0.0000 
0.0000 0.0000 0.0000 
0.0000 0.0000 0.0000 
0.0000 0.0000 0.0000 
0.0000 0.0000 0.0000 
0.0000 0.0000 0.0000 
0.0000 0.0000 0.0000 
0.0000 0.0000 0.0000 
0.0000 0.0000 0.0000 
0.0000 0.0000 0.0000 
0.0000 0.0000 0.0000 
0.0000 0.0000 0.0000 
0.0000 0.0000 0.0000 
0.0000 0.0000 0.0000 
0.0000 0.0000 0.0000 
0.0000 0.0000 0.0000 
0.0000 0.0000 0.0000 
0.0000 0.0000 0.0000 
0.0000 0.0000 0.0000 
0.0000 0.0000 0.0000 
0.0000 0.0000 0.0000 
0.0000 0.0000 0.0000 
0.0000 0.0000 0.0000 
0.0000 0.0000 0.0000 
0.0000 0.0000 0.0000 
0.0000 0.0000 0.0000 
0.0000 0.0000 0.0000 
0.0000 0.0000 0.0000 
0.0000 0.0000 0.0000 
0.0000 0.0000 0.0000 
0.0000 0.0000 0.0000 
0.0000 0.0000 0.0000 
0.0000 0.0000 0.0000 
0.0000 0.0000 0.0000 
0.0000 0.0000 0.0000 
0.0000 0.0000 0.0000 
0.0000 0.0000 0.0000 
0.0000 0.0000 0.0000 
0.0000 0.0000 0.0000 
0.0000 0.0000 0.0000 
0.0000 0.0000 0.0000 
0.0000 0.0000 0.0000 
0.0000 0.0000 0.0000 
0.0000 0.0000 0.0000 
0.0000 0.0000 0.0000 
0.0000 0.0000 0.0000 
0.0000 0.0000 0.0000 
0.0000 0.0000 0.0000 
0.0000 0.0000 0.0000 
0.0000 0.0000 0.0000 
0.0000 0.0000 0.0000 
0.0000 0.0000 0.0000 
0.0000 0.0000 0.0000 
0.0000 0.0000 0.0000 
0.0000 0.0000 0.0000 
0.0000 0.0000 0.0000 
0.0000 0.0000 0.0000 
0.0000 0.0000 0.0000 
0.0000 0.0000 0.0000 
0.0000 0.0000 0.0000 
0.0000 0.0000 0.0000 
0.0000 0.0000 0.0000 
0.0000 0.0000 0.0000 
0.0000 0.0000 0.0000 
0.0000 0.0000 0.0000 
0.0000 0.0000 0.0000 
0.0000 0.0000 0.0000 
0.0000 0.0000 0.0000 
0.0000 0.0000 0.0000 
0.0000 0.0000 0.0000 
0.0000 0.0000 0.0000 
0.0000 0.0000 0.0000 
0.0000 0.0000 0.0000 
0.0000 0.0000 0.0000 
0.0000 0.0000 0.0000 
0.0000 0.0000 0.0000 
0.0000 0.0000 0.0000 
0.0000 0.0000 0.0000 
0.0000 0.0000 0.0000 
0.0000 0.0000 0.0000 
0.0000 0.0000 0.0000 
0.0000 0.0000 0.0000 
0.0000 0.0000 0.0000 
0.0000 0.0000 0.0000 
0.0000 0.0000 0.0000 
0.0000 0.0000 0.0000 
0.0000 0.0000 0.0000 
0.0000 0.0000 0.0000 
0.0000 0.0000 0.0000 
0.0000 0.0000 0.0000 
0.0000 0.0000 0.0000 
0.0000 0.0000 0.0000 
0.0000 0.0000 0.0000 
0.0000 0.0000 0.0000 
0.0000 0.0000 0.0000 
0.0000 0.0000 0.0000 
0.0000 0.0000 0.0000 
0.0000 0.0000 0.0000 
0.0000 0.0000 0.0000 
0.0000 0.0000 0.0000 
0.0000 0.0000 0.0000 
0.0000 0.0000 0.0000 
0.0000 0.0000 0.0000 
0.0000 0.0000 0.0000 
0.0000 0.0000 0.0000 
0.0000 0.0000 0.0000 
0.0000 0.0000 0.0000 
0.0000 0.0000 0.0000 
0.0000 0.0000 0.0000 
0.0000 0.0000 0.0000 
0.0000 0.0000 0.0000 
0.0000 0.0000 0.0000 
0.0000 0.0000 0.0000 
0.0000 0.0000 0.0000 
0.0000 0.0000 0.0000 
0.0000 0.0000 0.0000 
0.0000 0.0000 0.0000 
0.0000 0.0000 0.0000 
0.0000 0.0000 0.0000 
0.0000 0.0000 0.0000 
0.0000 0.0000 0.0000 
0.0000 0.0000 0.0000 
0.0000 0.0000 0.0000 
0.0000 0.0000 0.0000 
0.0000 0.0000 0.0000 
0.0000 0.0000 0.0000 
0.0000 0.0000 0.0000 
0.0000 0.0000 0.0000 
0.0000 0.0000 0.0000 
0.0000 0.0000 0.0000 
0.0000 0.0000 0.0000 
0.0000 0.0000 0.0000 
0.0000 0.0000 0.0000 
0.0000 0.0000 0.0000 
0.0000 0.0000 0.0000 
0.0000 0.0000 0.0000 
0.0000 0.0000 0.0000 
0.0000 0.0000 0.0000 
0.0000 0.0000 0.0000 
0.0000 0.0000 0.0000 
0.0000 0.0000 0.0000 
0.0000 0.0000 0.0000 
0.0000 0.0000 0.0000 
0.0000 0.0000 0.0000 
0.0000 0.0000 0.0000 
0.0000 0.0000 0.0000 
0.0000 0.0000 0.0000 
0.0000 0.0000 0.0000 
0.0000 0.0000 0.0000 
0.0000 0.0000 0.0000 
0.0000 0.0000 0.0000 
0.0000 0.0000 0.0000 
0.0000 0.0000 0.0000 
0.0000 0.0000 0.0000 
0.0000 0.0000 0.0000 
0.0000 0.0000 0.0000 
0.0000 0.0000 0.0000 
0.0000 0.0000 0.0000 
0.0000 0.0000 0.0000 
0.0000 0.0000 0.0000 
0.0000 0.0000 0.0000 
0.0000 0.0000 0.0000 
0.0000 0.0000 0.0000 
0.0000 0.0000 0.0000 
0.0000 0.0000 0.0000 
0.0000 0.0000 0.0000 
0.0000 0.0000 0.0000 
0.0000 0.0000 0.0000 
0.0000 0.0000 0.0000 
0.0000 0.0000 0.0000 
0.0000 0.0000 0.0000 
0.0000 0.0000 0.0000 
0.0000 0.0000 0.0000 
0.0000 0.0000 0.0000 
0.0000 0.0000 0.0000 
0.0000 0.0000 0.0000 
0.0000 0.0000 0.0000 
0.0000 0.0000 0.0000 
0.0000 0.0000 0.0000 
0.0000 0.0000 0.0000 
0.0000 0.0000 0.0000 
0.0000 0.0000 0.0000 
0.0000 0.0000 0.0000 
0.0000 0.0000 0.0000 
0.0000 0.0000 0.0000 
0.0000 0.0000 0.0000 
0.0000 0.0000 0.0000 
0.0000 0.0000 0.0000 
0.0000 0.0000 0.0000 
0.0000 0.0000 0.0000 
0.0000 0.0000 0.0000 
0.0000 0.0000 0.0000 
0.0000 0.0000 0.0000 
0.0000 0.0000 0.0000 
0.0000 0.0000 0.0000 
0.0000 0.0000 0.0000 
0.0000 0.0000 0.0000 
0.0000 0.0000 0.0000 
0.0000 0.0000 0.0000 
0.0000 0.0000 0.0000 
0.0000 0.0000 0.0000 
0.0000 0.0000 0.0000 
0.0000 0.0000 0.0000 
0.0000 0.0000 0.0000 
0.0000 0.0000 0.0000 
0.0000 0.0000 0.0000 
0.0000 0.0000 0.0000 
0.0000 0.0000 0.0000 
0.0000 0.0000 0.0000 
0.0000 0.0000 0.0000 
0.0000 0.0000 0.0000 
0.0000 0.0000 0.0000 
0.0000 0.0000 0.0000 
0.0000 0.0000 0.0000 
0.0000 0.0000 0.0000 
0.0000 0.0000 0.0000 
0.0000 0.0000 0.0000 
0.0000 0.0000 0.0000 
0.0000 0.0000 0.0000 
0.0000 0.0000 0.0000 
0.0000 0.0000 0.0000 
0.0000 0.0000 0.0000 
0.0000 0.0000 0.0000 
0.0000 0.0000 0.0000 
0.0000 0.0000 0.0000 
0.0000 0.0000 0.0000 
0.0000 0.0000 0.0000 
0.0000 0.0000 0.0000 
0.0000 0.0000 0.0000 
0.0000 0.0000 0.0000 
0.0000 0.0000 0.0000 
0.0000 0.0000 0.0000 
0.0000 0.0000 0.0000 
0.0000 0.0000 0.0000 
0.0000 0.0000 0.0000 
0.0000 0.0000 0.0000 
0.0000 0.0000 0.0000 
0.0000 0.0000 0.0000 
0.0000 0.0000 0.0000 
0.0000 0.0000 0.0000 
0.0000 0.0000 0.0000 
0.0000 0.0000 0.0000 
0.0000 0.0000 0.0000 
0.0000 0.0000 0.0000 
0.0000 0.0000 0.0000 
0.0000 0.0000 0.0000 
0.0000 0.0000 0.0000 
0.0000 0.0000 0.0000 
0.0000 0.0000 0.0000 
0.0000 0.0000 0.0000 
0.0000 0.0000 0.0000 
0.0000 0.0000 0.0000 
0.0000 0.0000 0.0000 
0.0000 0.0000 0.0000 
0.0000 0.0000 0.0000 
0.0000 0.0000 0.0000 
0.0000 0.0000 0.0000 
0.0000 0.0000 0.0000 
0.0000 0.0000 0.0000 
0.0000 0.0000 0.0000 
0.0000 0.0000 0.0000 
0.0000 0.0000 0.0000 
0.0000 0.0000 0.0000 
0.0000 0.0000 0.0000 
0.0000 0.0000 0.0000 
0.0000 0.0000 0.0000 
0.0000 0.0000 0.0000 
0.0000 0.0000 0.0000 
0.0000 0.0000 0.0000 
0.0000 0.0000 0.0000 
0.0000 0.0000 0.0000 
0.0000 0.0000 0.0000 
0.0000 0.0000 0.0000 
0.0000 0.0000 0.0000 
0.0000 0.0000 0.0000 
0.0000 0.0000 0.0000 
0.0000 0.0000 0.0000 
0.0000 0.0000 0.0000 
0.0000 0.0000 0.0000 
0.0000 0.0000 0.0000 
0.0000 0.0000 0.0000 
0.0000 0.0000 0.0000 
0.0000 0.0000 0.0000 
0.0000 0.0000 0.0000 
0.0000 0.0000 0.0000 
0.0000 0.0000 0.0000 
0.0000 0.0000 0.0000 
0.0000 0.0000 0.0000 
0.0000 0.0000 0.0000 
0.0000 0.0000 0.0000 
0.0000 0.0000 0.0000 
0.0000 0.0000 0.0000 
0.0000 0.0000 0.0000 
0.0000 0.0000 0.0000 
0.0000 0.0000 0.0000 
0.0000 0.0000 0.0000 
0.0000 0.0000 0.0000 
0.0000 0.0000 0.0000 
0.0000 0.0000 0.0000 
0.0000 0.0000 0.0000 
0.0000 0.0000 0.0000 
0.0000 0.0000 0.0000 
0.0000 0.0000 0.0000 
0.0000 0.0000 0.0000 
0.0000 0.0000 0.0000 
0.0000 0.0000 0.0000 
0.0000 0.0000 0.0000 
0.0000 0.0000 0.0000 
0.0000 0.0000 0.0000 
0.0000 0.0000 0.0000 
0.0000 0.0000 0.0000 
0.0000 0.0000 0.0000 
0.0000 0.0000 0.0000 
0.0000 0.0000 0.0000 
0.0000 0.0000 0.0000 
0.0000 0.0000 0.0000 
0.0000 0.0000 0.0000 
0.0000 0.0000 0.0000 
0.0000 0.0000 0.0000 
0.0000 0.0000 0.0000 
0.0000 0.0000 0.0000 
0.0000 0.0000 0.0000 
0.0000 0.0000 0.0000 
0.0000 0.0000 0.0000 
0.0000 0.0000 0.0000 
0.0000 0.0000 0.0000 
0.0000 0.0000 0.0000 
0.0000 0.0000 0.0000 
0.0000 0.0000 0.0000 
0.0000 0.0000 0.0000 
0.0000 0.0000 0.0000 
0.0000 0.0000 0.0000 
0.0000 0.0000 0.0000 
0.0000 0.0000 0.0000 
0.0000 0.0000 0.0000 
0.0000 0.0000 0.0000 
0.0000 0.0000 0.0000 
0.0000 0.0000 0.0000 
0.0000 0.0000 0.0000 
0.0000 0.0000 0.0000 
0.0000 0.0000 0.0000 
0.0000 0.0000 0.0000 
0.0000 0.0000 0.0000 
0.0000 0.0000 0.0000 
0.0000 0.0000 0.0000 
0.0000 0.0000 0.0000 
0.0000 0.0000 0.0000 
0.0000 0.0000 0.0000 
0.0000 0.0000 0.0000 
TENSORS Stress float 
0.356171 0.008269 0.663341 
0.008269 0.350312 0.481258 
0.663341 0.481258 0.807213 

0.285270 0.013782 0.658136 
0.013782 0.287983 0.786570 
0.658136 0.786570 0.641573 

0.391783 0.019824 0.527758 
0.019824 0.442458 1.520281 
0.527758 1.520281 0.902470 

0.550290 0.007921 0.219003 
0.007921 0.620850 1.688735 
0.219003 1.688735 1.290045 

0.482183 -0.000056 0.036391 
-0.000056 0.557596 1.708670 
0.036391 1.708670 1.134439 

0.517246 0.000161 0.035435 
0.000161 0.572924 1.445065 
0.035435 1.445065 1.218428 

0.460027 0.006172 0.206917 
0.006172 0.509604 1.372648 
0.206917 1.372648 1.081783 

0.479622 0.009794 0.281858 
0.009794 0.545796 1.609252 
0.281858 1.609252 1.126121 

0.482606 -0.000388 0.058330 
-0.000388 0.552773 1.619311 
0.058330 1.619311 1.141892 

0.415821 -0.000671 0.014730 
-0.000671 0.464868 1.298405 
0.014730 1.298405 0.987676 

0.327975 0.003320 0.156320 
0.003320 0.369676 1.244112 
0.156320 1.244112 0.773444 

0.394547 0.002707 0.131033 
0.002707 0.430594 1.170570 
0.131033 1.170570 0.927395 

0.339242 0.004183 0.177054 
0.004183 0.370817 1.097209 
0.177054 1.097209 0.795879 

0.415563 0.009264 0.325369 
0.009264 0.449060 1.198527 
0.325369 1.198527 0.969007 

0.447946 0.009815 0.264518 
0.009815 0.511236 1.594159 
0.264518 1.594159 1.047313 

0.467717 0.004962 0.148827 
0.004962 0.531925 1.587703 
0.148827 1.587703 1.097144 

0.466236 0.002068 0.084742 
0.002068 0.532296 1.593481 
0.084742 1.593481 1.096620 

0.470296 -0.000712 0.015276 
-0.000712 0.526213 1.425532 
0.015276 1.425532 1.112050 

0.379642 -0.000278 0.049800 
-0.000278 0.424550 1.236574 
0.049800 1.236574 0.903084 

0.308859 -0.002888 -0.004314 
-0.002888 0.351029 1.243035 
-0.004314 1.243035 0.732715 

0.271843 -0.004097 -0.131744 
-0.004097 0.291925 0.852379 
-0.131744 0.852379 0.641672 

0.182045 -0.002942 -0.158552 
-0.002942 0.189558 0.474573 
-0.158552 0.474573 0.431092 

0.075834 -0.001505 -0.181922 
-0.001505 0.077682 0.179187 
-0.181922 0.179187 0.180321 

-0.047899 0.000381 -0.090727 
0.000381 -0.047623 -0.034752 
-0.090727 -0.034752 -0.110468 

-0.054179 0.000014 0.015517 
0.000014 -0.052524 -0.249024 
0.015517 -0.249024 -0.125700 

0.244961 0.005902 0.626950 
0.005902 0.237678 0.389449 
0.626950 0.389449 0.549553 

-0.028126 0.020866 0.851432 
0.020866 -0.032866 0.929339 
0.851432 0.929339 -0.111246 

0.677875 0.046747 0.853005 
0.046747 0.796759 2.345823 
0.853005 2.345823 1.553594 

0.370579 0.033880 0.650800 
0.033880 0.524136 2.519767 
0.650800 2.519767 0.857148 

0.578838 0.029798 0.655679 
0.029798 0.715664 2.302474 
0.655679 2.302474 1.371157 

0.304456 0.026676 0.750677 
0.026676 0.395623 1.846283 
0.750677 1.846283 0.726361 

0.326992 0.031814 0.965436 
0.031814 0.387563 1.717010 
0.965436 1.717010 0.743885 

0.536542 0.048797 1.019596 
0.048797 0.656458 2.192286 
1.019596 2.192286 1.255090 

0.523075 0.052089 1.033972 
0.052089 0.671422 2.245559 
1.033972 2.245559 1.278963 

0.293462 0.027461 1.111570 
0.027461 0.364104 1.554340 
1.111570 1.554340 0.718189 

0.553030 0.029784 0.979776 
0.029784 0.631911 1.723106 
0.979776 1.723106 1.314449 

0.320902 0.024126 0.767259 
0.024126 0.399513 1.633149 
0.767259 1.633149 0.779250 

0.312772 0.018422 0.758665 
0.018422 0.361766 1.420096 
0.758665 1.420096 0.735360 

0.269161 0.027859 0.763813 
0.027859 0.329342 1.716593 
0.763813 1.716593 0.605671 

0.629872 0.033493 0.675964 
0.033493 0.745970 2.187355 
0.675964 2.187355 1.468000 

0.475836 0.027010 0.605217 
0.027010 0.593745 2.154160 
0.605217 2.154160 1.118387 

0.538070 0.034306 0.701390 
0.034306 0.648848 2.075659 
0.701390 2.075659 1.264615 

0.355810 0.040526 0.942527 
0.040526 0.438499 1.747065 
0.942527 1.747065 0.842040 

0.317132 0.037690 1.169826 
0.037690 0.379895 1.611023 
1.169826 1.611023 0.739478 

0.608882 0.028627 0.934959 
0.028627 0.706772 1.845390 
0.934959 1.845390 1.470481 

0.161842 0.007135 0.634152 
0.007135 0.217486 1.176961 
0.634152 1.176961 0.435809 

0.016410 0.003881 0.634161 
0.003881 0.037136 0.739807 
0.634161 0.739807 0.060045 

0.052004 0.000423 0.512532 
0.000423 0.054917 0.456338 
0.512532 0.456338 0.126367 

0.072513 -0.002252 0.289271 
-0.002252 0.073548 -0.144314 
0.289271 -0.144314 0.169410 

-0.110046 -0.001723 0.237102 
-0.001723 -0.108083 -0.263142 
0.237102 -0.263142 -0.255708 

0.298854 0.004403 0.810613 
0.004403 0.280694 0.281669 
0.810613 0.281669 0.660515 

0.236505 0.031144 1.190503 
0.031144 0.205804 1.166586 
1.190503 1.166586 0.466919 

1.123084 0.162161 1.704924 
0.162161 1.400306 3.724891 
1.704924 3.724891 2.469109 

1.208360 0.205025 2.010168 
0.205025 1.511338 3.984548 
2.010168 3.984548 2.609741 

0.780345 0.222908 2.554446 
0.222908 0.914562 3.421137 
2.554446 3.421137 1.444477 

0.899503 0.209904 2.881638 
0.209904 0.893864 2.888982 
2.881638 2.888982 1.613519 

0.622600 0.224349 2.839125 
0.224349 0.662140 3.100233 
2.839125 3.100233 0.972740 

0.843144 0.265751 3.364549 
0.265751 0.797354 3.051543 
3.364549 3.051543 1.307871 

1.357438 0.307228 4.259441 
0.307228 1.104791 2.831491 
4.259441 2.831491 2.108672 

0.427193 0.303091 4.219181 
0.303091 0.168935 2.821785 
4.219181 2.821785 -0.069477 

0.471858 0.262475 3.571599 
0.262475 0.361061 2.901852 
3.571599 2.901852 0.345259 

0.735522 0.194053 3.169264 
0.194053 0.631627 2.417723 
3.169264 2.417723 1.129902 

0.511416 0.174691 2.679613 
0.174691 0.489450 2.569772 
2.679613 2.569772 0.769539 

0.815577 0.146559 1.924768 
0.146559 0.959480 3.038145 
1.924768 3.038145 1.701181 

0.538717 0.149640 1.927838 
0.149640 0.682638 3.016199 
1.927838 3.016199 1.048214 

0.664099 0.173574 2.148630 
0.173574 0.803360 3.155356 
2.148630 3.155356 1.283285 

0.746724 0.160687 2.411475 
0.160687 0.768245 2.561673 
2.411475 2.561673 1.405969 

0.838263 0.169543 3.309626 
0.169543 0.659764 2.005743 
3.309626 2.005743 1.306537 

0.604629 0.256340 3.853537 
0.256340 0.388704 2.564329 
3.853537 2.564329 0.513562 

0.664541 0.288718 3.804256 
0.288718 0.517926 2.980460 
3.804256 2.980460 0.687637 

0.527659 0.183574 3.354002 
0.183574 0.355926 2.208915 
3.354002 2.208915 0.564046 

0.784736 0.108923 2.723942 
0.108923 0.656826 1.636833 
2.723942 1.636833 1.404789 

0.594988 0.056434 1.858372 
0.056434 0.542437 1.302275 
1.858372 1.302275 1.188708 

-0.666899 0.004452 1.085909 
0.004452 -0.698051 0.185776 
1.085909 0.185776 -1.618521 

-0.088484 -0.005337 0.824283 
-0.005337 -0.105366 -0.223359 
0.824283 -0.223359 -0.247869 

0.330133 0.005262 0.818000 
0.005262 0.308753 0.276401 
0.818000 0.276401 0.732031 

0.091153 0.026518 0.939009 
0.026518 0.075072 1.403652 
0.939009 1.403652 0.161897 

0.302241 0.179481 1.512650 
0.179481 0.779448 4.523393 
1.512650 4.523393 0.585512 

0.431049 0.278041 2.542175 
0.278041 0.724166 4.191386 
2.542175 4.191386 0.628308 

0.398473 0.355400 3.364629 
0.355400 0.540040 4.075141 
3.364629 4.075141 0.255172 

0.517682 0.392027 3.498945 
0.392027 0.696227 4.359095 
3.498945 4.359095 0.478066 

1.468523 0.381130 3.532246 
0.381130 1.601537 4.211950 
3.532246 4.211950 2.718232 

0.710483 0.324399 4.175554 
0.324399 0.497504 3.007807 
4.175554 3.007807 0.612834 

0.351629 0.423705 5.259916 
0.423705 -0.130664 3.059582 
5.259916 3.059582 -0.860671 

1.237627 0.593015 5.256007 
0.593015 1.020015 4.371291 
5.256007 4.371291 1.240896 

0.419528 0.475054 4.675399 
0.475054 0.242049 3.899490 
4.675399 3.899490 -0.346150 

0.246678 0.349767 4.174260 
0.349767 0.044453 3.136670 
4.174260 3.136670 -0.468915 

-0.227661 0.361989 3.293827 
0.361989 -0.050608 4.200191 
3.293827 4.200191 -1.195746 

0.370032 0.287589 2.865724 
0.287589 0.545253 3.861516 
2.865724 3.861516 0.378036 

0.039722 0.232620 2.919457 
0.232620 0.065849 3.058302 
2.919457 3.058302 -0.413770 

-0.367248 0.280492 3.014305 
0.280492 -0.275587 3.527588 
3.014305 3.527588 -1.391651 

-0.069786 0.212556 2.907451 
0.212556 -0.079154 2.830790 
2.907451 2.830790 -0.662784 

0.188845 0.153748 3.062665 
0.153748 0.044558 1.981006 
3.062665 1.981006 -0.125001 

0.774859 0.295054 3.875895 
0.295054 0.612942 2.971904 
3.875895 2.971904 0.908267 

0.798030 0.452235 4.523241 
0.452235 0.651577 3.843649 
4.523241 3.843649 0.633958 

0.361872 0.412714 4.175220 
0.412714 0.284641 3.814667 
4.175220 3.814667 -0.208615 

0.421350 0.270297 3.296380 
0.270297 0.413713 3.241534 
3.296380 3.241534 0.342976 

0.256329 0.124994 2.237556 
0.124994 0.261879 2.390231 
2.237556 2.390231 0.314451 

-0.098697 0.017398 1.250324 
0.017398 -0.130735 0.605530 
1.250324 0.605530 -0.320421 

-0.307559 -0.003753 0.901259 
-0.003753 -0.330159 -0.104720 
0.901259 -0.104720 -0.762462 

0.302585 0.006092 0.957950 
0.006092 0.275577 0.339071 
0.957950 0.339071 0.654139 

0.378437 0.045181 1.405597 
0.045181 0.354819 1.559478 
1.405597 1.559478 0.773222 

0.787061 0.271192 2.352288 
0.271192 1.151679 4.422949 
2.352288 4.422949 1.521965 

-0.415888 0.327426 3.355840 
0.327426 -0.344907 3.720765 
3.355840 3.720765 -1.651844 

0.241821 0.463621 4.306960 
0.463621 0.198700 4.137486 
4.306960 4.137486 -0.567895 

1.454463 0.600482 4.603579 
0.600482 1.572001 5.085230 
4.603579 5.085230 2.134621 

0.328169 0.517121 4.381293 
0.517121 0.353277 4.526059 
4.381293 4.526059 -0.398943 

0.000670 0.339775 4.306226 
0.339775 -0.248229 3.013670 
4.306226 3.013670 -1.133476 

1.216667 0.393118 4.339681 
0.393118 1.042412 3.530939 
4.339681 3.530939 1.725021 

1.212157 0.572517 4.491133 
0.572517 1.326819 4.959765 
4.491133 4.959765 1.623278 

0.576169 0.531741 4.256811 
0.531741 0.706476 4.811300 
4.256811 4.811300 0.257698 

0.170020 0.375173 3.418476 
0.375173 0.323798 4.199948 
3.418476 4.199948 -0.314569 

1.005593 0.389552 3.204494 
0.389552 1.306011 4.695575 
3.204494 4.695575 1.746341 

0.503540 0.375066 3.830777 
0.375066 0.489559 3.769864 
3.830777 3.769864 0.284844 

-0.111813 0.318712 3.969253 
0.318712 -0.279726 3.049964 
3.969253 3.049964 -1.218066 

-0.015406 0.346932 4.107242 
0.346932 -0.184745 3.232441 
4.107242 3.232441 -1.067861 

1.003991 0.365477 4.164571 
0.365477 0.857039 3.418572 
4.164571 3.418572 1.308287 

0.357423 0.243304 3.654163 
0.243304 0.181426 2.597555 
3.654163 2.597555 0.024710 

1.202329 0.303497 3.700591 
0.303497 1.107146 3.223996 
3.700591 3.223996 2.003371 

0.801579 0.449850 3.828534 
0.449850 0.960994 4.557936 
3.828534 4.557936 0.994947 

0.830713 0.500521 4.070087 
0.500521 0.986913 4.760625 
4.070087 4.760625 0.946151 

1.329672 0.417602 4.084694 
0.417602 1.315472 4.007185 
4.084694 4.007185 2.112294 

-0.316528 0.281530 3.131595 
0.281530 -0.263391 3.584812 
3.131595 3.584812 -1.315122 

-0.633411 0.046729 1.844451 
0.046729 -0.698364 1.011173 
1.844451 1.011173 -1.671729 

-0.231863 -0.001695 1.197723 
-0.001695 -0.272302 0.037108 
1.197723 0.037108 -0.624094 

0.383384 0.005615 1.124327 
0.005615 0.347903 0.278361 
1.124327 0.278361 0.823330 

0.410030 0.042604 1.628693 
0.042604 0.359980 1.382307 
1.628693 1.382307 0.813533 

0.314612 0.314635 2.906628 
0.314635 0.541347 4.137009 
2.906628 4.137009 0.226589 

1.033523 0.350000 3.636596 
0.350000 1.061311 3.753460 
3.636596 3.753460 1.642429 

0.611272 0.366929 4.164210 
0.366929 0.463278 3.405847 
4.164210 3.405847 0.388099 

0.005190 0.545609 4.915887 
0.545609 -0.162253 4.225311 
4.915887 4.225311 -1.462935 

-0.621483 0.568454 4.964553 
0.568454 -0.783118 4.326763 
4.964553 4.326763 -2.946416 

0.646577 0.420110 4.748090 
0.420110 0.360298 3.390505 
4.748090 3.390505 0.147170 

1.136955 0.447233 4.210356 
0.447233 1.113061 4.123728 
4.210356 4.123728 1.591274 

-0.533837 0.532150 3.965626 
0.532150 -0.271571 5.068070 
3.965626 5.068070 -2.201680 

0.800944 0.535617 3.649280 
0.535617 1.300220 5.720072 
3.649280 5.720072 1.076157 

0.163887 0.397020 3.110295 
0.397020 0.534438 4.867168 
3.110295 4.867168 -0.186580 

0.091798 0.391438 3.563856 
0.391438 0.228367 4.204739 
3.563856 4.204739 -0.543016 

0.840662 0.363460 3.727591 
0.363460 0.864297 3.822419 
3.727591 3.822419 1.147898 

0.532381 0.324658 3.462103 
0.324658 0.562735 3.638387 
3.462103 3.638387 0.529445 

0.682928 0.246977 3.750068 
0.246977 0.486476 2.566111 
3.750068 2.566111 0.747656 

0.825739 0.376328 4.286626 
0.376328 0.650490 3.393228 
4.286626 3.393228 0.824720 

0.251139 0.434697 4.393042 
0.434697 0.120123 3.761281 
4.393042 3.761281 -0.581942 

1.130914 0.440173 4.129616 
0.440173 1.130923 4.142267 
4.129616 4.142267 1.626322 

0.491340 0.529967 4.362856 
0.529967 0.564418 4.670060 
4.362856 4.670060 -0.006437 

0.199798 0.548180 4.657757 
0.548180 0.168950 4.509114 
4.657757 4.509114 -0.846435 

-0.550186 0.441306 3.945753 
0.441306 -0.482585 4.219471 
3.945753 4.219471 -2.209579 

0.047374 0.287759 2.632249 
0.287759 0.337296 4.437900 
2.632249 4.437900 -0.300270 

0.023309 0.045319 1.412118 
0.045319 0.008905 1.274333 
1.412118 1.274333 -0.062693 

-0.426018 -0.000139 1.132161 
-0.000139 -0.465886 0.052375 
1.132161 0.052375 -1.065548 

0.337653 0.003500 1.124605 
0.003500 0.304408 0.189996 
1.124605 0.189996 0.716511 

0.564223 0.023415 1.759050 
0.023415 0.482263 0.970580 
1.759050 0.970580 1.160952 

1.010382 0.329706 3.416845 
0.329706 1.095768 3.828739 
3.416845 3.828739 1.697437 

1.369019 0.494876 4.648995 
0.494876 1.247173 4.136646 
4.648995 4.136646 1.916089 

0.415942 0.370418 5.021333 
0.370418 -0.036901 2.821875 
5.021333 2.821875 -0.563820 

0.036442 0.463310 4.845414 
0.463310 -0.230079 3.642653 
4.845414 3.642653 -1.346466 

-0.593450 0.450588 4.445610 
0.450588 -0.729318 3.833302 
4.445610 3.833302 -2.594867 

1.006679 0.374210 4.193612 
0.374210 0.853968 3.427247 
4.193612 3.427247 1.307062 

0.860025 0.439080 3.896553 
0.439080 0.963071 4.384831 
3.896553 4.384831 1.097043 

-0.470598 0.548255 3.993665 
0.548255 -0.172793 5.223188 
3.993665 5.223188 -2.066860 

0.466239 0.641261 4.150455 
0.641261 0.921207 5.926326 
4.150455 5.926326 0.041756 

0.820420 0.525265 4.345446 
0.525265 0.896804 4.666076 
4.345446 4.666076 0.782912 

0.247215 0.524562 4.770117 
0.524562 0.113688 4.201686 
4.770117 4.201686 -0.811207 

0.732888 0.568713 4.896713 
0.568713 0.632558 4.471743 
4.896713 4.471743 0.263453 

1.421342 0.500328 4.560278 
0.500328 1.357893 4.316956 
4.560278 4.316956 2.089674 

0.382643 0.290544 3.845138 
0.290544 0.208675 2.887268 
3.845138 2.887268 -0.005858 

-0.491359 0.322977 3.427178 
0.322977 -0.470337 3.550227 
3.427178 3.550227 -1.860072 

0.918223 0.385540 3.441111 
0.385540 1.103480 4.363526 
3.441111 4.363526 1.443557 

0.809667 0.476679 3.741874 
0.476679 1.076893 4.935395 
3.741874 4.935395 1.051605 

0.358658 0.480279 3.969833 
0.480279 0.512152 4.654250 
3.969833 4.654250 -0.127629 

-0.738473 0.416268 3.743119 
0.416268 -0.642571 4.194635 
3.743119 4.194635 -2.566461 

0.136472 0.374300 3.367127 
0.374300 0.317158 4.272614 
3.367127 4.272614 -0.370125 

-0.482145 0.304981 2.797227 
0.304981 -0.248197 4.279834 
2.797227 4.279834 -1.591325 

-0.600131 0.065049 2.057672 
0.065049 -0.674572 1.248956 
2.057672 1.248956 -1.645961 

-0.355119 0.002788 1.498464 
0.002788 -0.418181 0.139268 
1.498464 0.139268 -0.959291 

0.446075 0.006453 0.998362 
0.006453 0.421194 0.273754 
0.998362 0.273754 0.986182 

0.040204 0.017177 1.152222 
0.017177 0.012346 0.893156 
1.152222 0.893156 0.024025 

0.222754 0.169761 2.246917 
0.169761 0.332922 2.977163 
2.246917 2.977163 0.245012 

0.785440 0.391935 4.074441 
0.391935 0.706724 3.672191 
4.074441 3.672191 0.853257 

1.084853 0.410912 5.504978 
0.410912 0.515696 2.890480 
5.504978 2.890480 0.710364 

1.186278 0.556781 5.522579 
0.556781 0.786027 3.865533 
5.522579 3.865533 0.948886 

0.875185 0.499587 4.541803 
0.499587 0.814179 4.261297 
4.541803 4.261297 0.812861 

0.172235 0.354017 3.334140 
0.354017 0.320969 4.104784 
3.334140 4.104784 -0.271493 

-0.590106 0.327231 3.033088 
0.327231 -0.389146 4.098225 
3.033088 4.098225 -1.934774 

0.821496 0.410731 3.388156 
0.410731 1.097597 4.716726 
3.388156 4.716726 1.237889 

0.090137 0.564490 4.177902 
0.564490 0.316392 5.119810 
4.177902 5.119810 -0.844154 

0.940865 0.590985 5.039190 
0.590985 0.816714 4.535446 
5.039190 4.535446 0.667185 

1.043266 0.527998 4.520646 
0.527998 1.041410 4.516449 
4.520646 4.516449 1.210610 

0.200427 0.492978 4.097487 
0.492978 0.317357 4.613445 
4.097487 4.613445 -0.553911 

0.202535 0.533977 4.295604 
0.533977 0.313984 4.774757 
4.295604 4.774757 -0.649418 

0.591498 0.392137 3.820201 
0.392137 0.620065 3.950231 
3.820201 3.950231 0.504349 

0.484883 0.309145 2.827579 
0.309145 0.745889 4.239912 
2.827579 4.239912 0.656775 

0.186466 0.316453 2.795303 
0.316453 0.488545 4.382443 
2.795303 4.382443 -0.026075 

0.829142 0.503720 3.886977 
0.503720 1.081167 4.988431 
3.886977 4.988431 1.036210 

1.523179 0.557616 4.422115 
0.557616 1.656744 4.925240 
4.422115 4.925240 2.431557 

0.176962 0.442443 3.844850 
0.442443 0.332172 4.491303 
3.844850 4.491303 -0.439992 

0.233835 0.285449 3.010572 
0.285449 0.359352 3.674939 
3.010572 3.674939 0.018519 

-0.212623 0.218959 2.278662 
0.218959 -0.000651 3.784205 
2.278662 3.784205 -0.801724 

-0.200209 0.055460 1.673291 
0.055460 -0.233653 1.300776 
1.673291 1.300776 -0.635726 

-0.449018 0.008920 1.341893 
0.008920 -0.498405 0.293752 
1.341893 0.293752 -1.151745 

0.396357 0.013571 1.397829 
0.013571 0.349227 0.401309 
1.397829 0.401309 0.810813 

0.741178 0.038136 1.812443 
0.038136 0.672865 0.957471 
1.812443 0.957471 1.551385 

0.297039 0.183554 2.787351 
0.183554 0.271866 2.540217 
2.787351 2.540217 0.240069 

0.058007 0.294169 4.159914 
0.294169 -0.201856 2.704064 
4.159914 2.704064 -0.921254 

1.507941 0.353338 4.891819 
0.353338 1.075087 2.784925 
4.891819 2.784925 2.112327 

0.222406 0.591044 4.661204 
0.591044 0.270251 4.844093 
4.661204 4.844093 -0.802025 

0.907381 0.589785 4.550763 
0.589785 1.020096 5.007709 
4.550763 5.007709 0.869777 

0.813824 0.524610 4.025380 
0.524610 1.067818 5.082706 
4.025380 5.082706 0.943714 

0.360972 0.390483 3.505801 
0.390483 0.523672 4.301612 
3.505801 4.301612 0.104478 

0.755339 0.352791 3.617744 
0.352791 0.788378 3.777698 
3.617744 3.777698 0.981905 

-0.022210 0.458169 4.618479 
0.458169 -0.199784 3.825518 
4.618479 3.825518 -1.343970 

0.951853 0.651345 5.056681 
0.651345 0.933247 4.918750 
5.056681 4.918750 0.727228 

0.164472 0.568840 4.038750 
0.568840 0.496836 5.389694 
4.038750 5.389694 -0.600175 

-0.615778 0.421027 3.855396 
0.421027 -0.555995 4.151614 
3.855396 4.151614 -2.339810 

0.795759 0.482161 4.029612 
0.482161 0.929266 4.635468 
4.029612 4.635468 0.875238 

-0.230275 0.425443 3.771191 
0.425443 -0.124787 4.271484 
3.771191 4.271484 -1.398532 

0.035323 0.424781 3.608390 
0.424781 0.229760 4.509030 
3.608390 4.509030 -0.703919 

0.783942 0.402506 3.544329 
0.402506 0.959833 4.379584 
3.544329 4.379584 1.087910 

0.723714 0.478468 4.568327 
0.478468 0.621461 4.092092 
4.568327 4.092092 0.447541 

0.236786 0.690696 5.932258 
0.690696 -0.156259 4.454978 
5.932258 4.454978 -1.569457 

1.131146 0.739536 5.718798 
0.739536 0.944904 5.030476 
5.718798 5.030476 0.679597 

-0.217990 0.456603 4.332975 
0.456603 -0.278984 4.026854 
4.332975 4.026854 -1.633455 

-0.217513 0.271728 2.946040 
0.271728 -0.104727 3.736139 
2.946040 3.736139 -1.016437 

-0.280863 0.046040 1.577907 
0.046040 -0.314575 1.155336 
1.577907 1.155336 -0.802580 

-0.378500 0.005314 1.212418 
0.005314 -0.419744 0.207722 
1.212418 0.207722 -0.968121 

0.573176 0.012263 1.556807 
0.012263 0.514653 0.336792 
1.556807 0.336792 1.202613 

0.510317 0.039043 2.264592 
0.039043 0.389594 0.808414 
2.264592 0.808414 0.895939 

1.115147 0.212144 3.530086 
0.212144 0.936612 2.349612 
3.530086 2.349612 1.870003 

0.403233 0.287079 3.923187 
0.287079 0.203773 2.807433 
3.923187 2.807433 0.007042 

0.248847 0.339975 3.847074 
0.339975 0.149254 3.398197 
3.847074 3.398197 -0.323664 

0.929646 0.531296 3.966432 
0.531296 1.211199 5.163461 
3.966432 5.163461 1.232902 

0.256392 0.542687 4.674863 
0.542687 0.201274 4.464234 
4.674863 4.464234 -0.730190 

0.135935 0.720103 5.203461 
0.720103 0.162155 5.285979 
5.203461 5.285979 -1.327626 

0.753353 0.542142 4.350239 
0.542142 0.863342 4.855649 
4.350239 4.855649 0.618985 

-0.036662 0.310751 3.721622 
0.310751 -0.129951 3.182375 
3.721622 3.182375 -0.918134 

0.234372 0.313681 3.735475 
0.313681 0.106758 3.163835 
3.735475 3.163835 -0.298889 

0.458340 0.457801 3.191550 
0.457801 0.992442 5.542082 
3.191550 5.542082 0.459797 

0.609466 0.454346 2.985475 
0.454346 1.221296 5.800667 
2.985475 5.800667 0.898144 

0.403434 0.288078 3.400446 
0.288078 0.379077 3.271798 
3.400446 3.271798 0.244349 

0.193404 0.407252 3.933452 
0.407252 0.193730 3.953037 
3.933452 3.953037 -0.488001 

0.260263 0.402399 4.396746 
0.402399 0.069251 3.513115 
4.396746 3.513115 -0.570555 

-0.139047 0.533993 4.441925 
0.533993 -0.108988 4.569679 
4.441925 4.569679 -1.529445 

0.820323 0.474408 4.130124 
0.474408 0.887883 4.459655 
4.130124 4.459655 0.896282 

0.604893 0.319855 3.949880 
0.319855 0.453138 3.133865 
3.949880 3.133865 0.464583 

-0.397872 0.407296 4.223593 
0.407296 -0.511291 3.689708 
4.223593 3.689708 -2.003950 

0.183098 0.599330 4.820867 
0.599330 0.180191 4.781534 
4.820867 4.781534 -0.973327 

0.513307 0.547214 4.584278 
0.547214 0.528946 4.594032 
4.584278 4.594032 -0.049731 

-0.523603 0.328044 3.158352 
0.328044 -0.367308 4.148625 
3.158352 4.148625 -1.809351 

-0.345675 0.056681 1.822932 
0.056681 -0.399477 1.231957 
1.822932 1.231957 -1.003483 

-0.408777 -0.002816 1.341910 
-0.002816 -0.462266 -0.006635 
1.341910 -0.006635 -1.056736 

0.543846 0.005731 1.782972 
0.005731 0.462674 0.163215 
1.782972 0.163215 1.086467 

0.866051 0.038389 2.403252 
0.038389 0.717775 0.742402 
2.403252 0.742402 1.695140 

0.905150 0.231082 3.305734 
0.231082 0.811737 2.709923 
3.305734 2.709923 1.473917 

0.506119 0.361016 3.834966 
0.361016 0.468580 3.618892 
3.834966 3.618892 0.301998 

1.350290 0.437197 4.099757 
0.437197 1.370296 4.181702 
4.099757 4.181702 2.169794 

0.271060 0.517132 4.371666 
0.517132 0.308244 4.529413 
4.371666 4.529413 -0.522135 

-0.079800 0.444696 4.581395 
0.444696 -0.276648 3.647147 
4.581395 3.647147 -1.430296 

0.200160 0.586771 4.484606 
0.586771 0.363688 5.062773 
4.484606 5.062773 -0.711101 

0.165255 0.604954 4.776137 
0.604954 0.177211 4.881837 
4.776137 4.881837 -0.992386 

0.192466 0.368087 4.689946 
0.368087 -0.146150 2.998140 
4.689946 2.998140 -0.887495 

0.055705 0.337998 4.102118 
0.337998 -0.161849 3.119518 
4.102118 3.119518 -0.894098 

0.440697 0.575602 3.850037 
0.575602 0.908839 5.740597 
3.850037 5.740597 0.129249 

0.177225 0.527576 3.786647 
0.527576 0.504208 5.279439 
3.786647 5.279439 -0.431279 

-0.219510 0.253633 3.735251 
0.253633 -0.397352 2.589900 
3.735251 2.589900 -1.332788 

0.581293 0.318439 4.053434 
0.318439 0.396829 3.001940 
4.053434 3.001940 0.383767 

0.318699 0.298717 4.359747 
0.298717 -0.004208 2.642972 
4.359747 2.642972 -0.413739 

-0.102027 0.501193 4.616239 
0.501193 -0.214346 4.136184 
4.616239 4.136184 -1.539080 

0.773291 0.564016 4.841627 
0.564016 0.685496 4.492391 
4.841627 4.492391 0.387423 

0.150089 0.402167 4.326378 
0.402167 0.004373 3.586478 
4.326378 3.586478 -0.771850 

0.376350 0.307902 3.523213 
0.307902 0.359900 3.416108 
3.523213 3.416108 0.142173 

0.670181 0.373459 3.550748 
0.373459 0.770600 4.072862 
3.550748 4.072862 0.807764 

1.003447 0.421744 3.398703 
0.421744 1.311818 4.854322 
3.398703 4.854322 1.644854 

-1.281659 0.285037 2.699455 
0.285037 -1.087585 4.043069 
2.699455 4.043069 -3.394885 

-0.027011 0.049612 2.096757 
0.049612 -0.120827 0.936959 
2.096757 0.936959 -0.326021 

-0.543401 -0.005323 1.546972 
-0.005323 -0.608939 -0.057715 
1.546972 -0.057715 -1.401820 

0.624180 0.001329 1.529715 
0.001329 0.561032 0.067223 
1.529715 0.067223 1.323897 

0.321548 0.039683 1.882767 
0.039683 0.222543 0.924423 
1.882767 0.924423 0.538230 

0.807390 0.213835 2.421008 
0.213835 0.961772 3.450183 
2.421008 3.450183 1.541215 

0.664073 0.284367 2.772656 
0.284367 0.874308 3.977097 
2.772656 3.977097 1.087656 

0.682652 0.333059 3.249539 
0.333059 0.820816 3.982967 
3.249539 3.982967 0.961423 

-0.166960 0.402142 3.435107 
0.402142 0.050386 4.471438 
3.435107 4.471438 -1.102353 

0.327646 0.318049 2.894471 
0.318049 0.576774 4.240250 
2.894471 4.240250 0.258377 

0.664610 0.284641 2.444847 
0.284641 1.020327 4.430461 
2.444847 4.430461 1.210653 

0.383416 0.339231 3.515852 
0.339231 0.413027 3.693625 
3.515852 3.693625 0.151886 

0.357580 0.312667 4.327585 
0.312667 0.075799 2.767725 
4.327585 2.767725 -0.284775 

0.100967 0.340019 4.010428 
0.340019 -0.051326 3.265486 
4.010428 3.265486 -0.738428 

0.142905 0.552506 4.282563 
0.552506 0.305834 4.950359 
4.282563 4.950359 -0.768143 

0.229271 0.605545 5.233752 
0.605545 0.018085 4.427956 
5.233752 4.427956 -1.116579 

0.875513 0.373103 5.406357 
0.373103 0.307050 2.657954 
5.406357 2.657954 0.286972 

0.209573 0.357143 5.352777 
0.357143 -0.370291 2.530171 
5.352777 2.530171 -1.257068 

1.312846 0.382438 5.013311 
0.382438 0.886256 2.938374 
5.013311 2.938374 1.568649 

0.480775 0.411466 4.441330 
0.411466 0.301488 3.560146 
4.441330 3.560146 -0.067127 

0.409947 0.503716 5.169933 
0.503716 0.100863 3.780944 
5.169933 3.780944 -0.629566 

1.288146 0.587526 5.495224 
0.587526 0.972935 4.157382 
5.495224 4.157382 1.231932 

0.544432 0.546908 4.835696 
0.546908 0.426882 4.315472 
4.835696 4.315472 -0.132024 

0.447127 0.478309 4.018680 
0.478309 0.570082 4.576321 
4.018680 4.576321 0.064574 

0.557453 0.451109 3.553227 
0.451109 0.840477 4.883519 
3.553227 4.883519 0.545828 

-0.422706 0.292778 3.443944 
0.292778 -0.478165 3.315055 
3.443944 3.315055 -1.698135 

-0.554545 0.042895 2.668278 
0.042895 -0.731119 0.628003 
2.668278 0.628003 -1.714268 

-0.517137 0.006193 1.978640 
0.006193 -0.618727 0.146586 
1.978640 0.146586 -1.433983 

0.465253 0.003544 1.532198 
0.003544 0.400549 0.127123 
1.532198 0.127123 0.948427 

0.748197 0.047958 1.884423 
0.047958 0.662412 1.150013 
1.884423 1.150013 1.544920 

0.128251 0.243790 2.562788 
0.243790 0.303903 3.646433 
2.562788 3.646433 -0.099182 

-0.529580 0.264707 2.650473 
0.264707 -0.330939 3.807798 
2.650473 3.807798 -1.649387 

-0.439659 0.244674 2.469264 
0.244674 -0.222991 3.786697 
2.469264 3.786697 -1.394424 

0.051331 0.323661 2.845317 
0.323661 0.331752 4.352895 
2.845317 4.352895 -0.376181 

1.146410 0.386028 3.075391 
0.386028 1.512014 4.857042 
3.075391 4.857042 2.137966 

-0.146501 0.332479 3.200945 
0.332479 0.001134 3.973366 
3.200945 3.973366 -0.946141 

0.477175 0.240768 3.228976 
0.240768 0.427245 2.909360 
3.228976 2.909360 0.490324 

0.132443 0.217234 3.063898 
0.217234 0.082359 2.725733 
3.063898 2.725733 -0.259459 

0.768378 0.279669 3.370726 
0.279669 0.741053 3.217825 
3.370726 3.217825 1.117444 

0.719164 0.360505 3.495236 
0.360505 0.816658 3.994674 
3.495236 3.994674 0.942858 

-0.173115 0.387312 3.809807 
0.387312 -0.170312 3.853060 
3.809807 3.853060 -1.294236 

1.013435 0.300178 4.261916 
0.300178 0.738587 2.727715 
4.261916 2.727715 1.283732 

1.146996 0.323530 4.573238 
0.323530 0.797877 2.734933 
4.573238 2.734933 1.434736 

0.445652 0.440597 4.461623 
0.440597 0.302511 3.782829 
4.461623 3.782829 -0.160940 

0.353364 0.352497 3.687935 
0.352497 0.353938 3.694332 
3.687935 3.694332 0.002059 

-0.007028 0.258162 3.244566 
0.258162 -0.041324 3.041544 
3.244566 3.041544 -0.651616 

-0.306324 0.348240 3.536650 
0.348240 -0.269064 3.755830 
3.536650 3.755830 -1.475651 

0.714065 0.474193 3.804960 
0.474193 0.939578 4.823927 
3.804960 4.823927 0.792236 

1.000441 0.545955 3.887599 
0.545955 1.366820 5.429199 
3.887599 5.429199 1.436416 

0.340085 0.506836 4.443104 
0.506836 0.320785 4.408651 
4.443104 4.408651 -0.403885 

0.414528 0.281381 4.013682 
0.281381 0.194034 2.796978 
4.013682 2.796978 0.007369 

-0.658594 0.060839 2.478765 
0.060839 -0.796472 0.953268 
2.478765 0.953268 -1.895977 

-0.445946 0.012583 1.893529 
0.012583 -0.537941 0.288298 
1.893529 0.288298 -1.249626 

0.495990 0.008355 1.554127 
0.008355 0.433460 0.243874 
1.554127 0.243874 1.017819 

0.704623 0.040464 2.014255 
0.040464 0.602519 0.975655 
2.014255 0.975655 1.415431 

0.016334 0.256811 2.990273 
0.256811 0.064574 3.298925 
2.990273 3.298925 -0.506294 

-0.489091 0.356811 3.316910 
0.356811 -0.335251 4.094100 
3.316910 4.094100 -1.809865 

0.685339 0.297618 2.878682 
0.297618 0.893142 4.018679 
2.878682 4.018679 1.118069 

0.504800 0.305830 3.214780 
0.305830 0.594104 3.695509 
3.214780 3.695509 0.566443 

0.446625 0.473827 4.273717 
0.473827 0.445089 4.266207 
4.273717 4.266207 -0.066206 

-0.360988 0.468291 4.475136 
0.468291 -0.473153 3.972025 
4.475136 3.972025 -2.063178 

0.211808 0.375028 3.955519 
0.375028 0.149192 3.650201 
3.955519 3.650201 -0.453408 

0.921929 0.254915 3.691886 
0.254915 0.767771 2.698027 
3.691886 2.698027 1.360904 

0.395444 0.303500 3.921799 
0.303500 0.225142 2.988556 
3.921799 2.988556 -0.004974 

-0.340910 0.405221 3.837250 
0.405221 -0.300348 4.026355 
3.837250 4.026355 -1.690659 

0.970576 0.370578 3.578756 
0.370578 1.057502 4.036332 
3.578756 4.036332 1.509854 

0.868263 0.294603 3.699278 
0.294603 0.759524 3.095733 
3.699278 3.095733 1.207583 

0.815472 0.307473 3.811862 
0.307473 0.683729 3.128279 
3.811862 3.128279 1.027273 

-0.268469 0.426985 3.765910 
0.426985 -0.152200 4.311460 
3.765910 4.311460 -1.488473 

0.301741 0.403814 4.000384 
0.403814 0.267066 3.863006 
4.000384 3.863006 -0.262054 

0.479750 0.265589 3.982039 
0.265589 0.235098 2.553857 
3.982039 2.553857 0.164349 

0.160770 0.343439 3.633639 
0.343439 0.154820 3.627609 
3.633639 3.627609 -0.428234 

-0.216139 0.442502 3.699690 
0.442502 -0.027530 4.569573 
3.699690 4.569573 -1.338085 

0.795103 0.549963 4.078380 
0.549963 1.062316 5.227227 
4.078380 5.227227 0.852327 

0.232839 0.389183 3.913040 
0.389183 0.215913 3.834608 
3.913040 3.834608 -0.388224 

-0.866338 0.247504 3.198677 
0.247504 -0.906282 3.041760 
3.198677 3.041760 -2.618758 

-0.133007 0.054771 2.051085 
0.054771 -0.216285 1.058244 
2.051085 1.058244 -0.564579 

-0.540919 0.006428 1.509152 
0.006428 -0.602030 0.208113 
1.509152 0.208113 -1.392021 

0.541232 0.005956 1.641857 
0.005956 0.472472 0.181627 
1.641857 0.181627 1.109313 

0.746625 0.034629 2.285606 
0.034629 0.610396 0.776540 
2.285606 0.776540 1.448882 

0.874059 0.257017 3.424772 
0.257017 0.789464 2.955976 
3.424772 2.955976 1.349427 

0.820305 0.451087 3.955435 
0.451087 0.921899 4.413294 
3.955435 4.413294 0.980195 

1.230854 0.443405 3.959348 
0.443405 1.316111 4.368100 
3.959348 4.368100 1.946086 

0.641676 0.333819 3.769713 
0.333819 0.575813 3.412057 
3.769713 3.412057 0.643325 

-0.125133 0.383532 3.834533 
0.383532 -0.124145 3.815903 
3.834533 3.815903 -1.179284 

0.613760 0.395086 4.170684 
0.395086 0.519844 3.691106 
4.170684 3.691106 0.395766 

0.989976 0.458655 4.748338 
0.458655 0.772632 3.748690 
4.748338 3.748690 0.966346 

0.881087 0.384042 5.100284 
0.384042 0.425680 2.876928 
5.100284 2.876928 0.499668 

0.200656 0.426501 4.774985 
0.426501 -0.100642 3.385350 
4.774985 3.385350 -0.916882 

0.387196 0.533843 4.499045 
0.533843 0.400997 4.553213 
4.499045 4.553213 -0.325493 

0.719954 0.472548 4.181452 
0.472548 0.759104 4.371385 
4.181452 4.371385 0.624269 

0.509073 0.393824 3.799716 
0.393824 0.545866 3.988463 
3.799716 3.988463 0.313423 

0.946975 0.389358 3.926955 
0.389358 0.933344 3.864023 
3.926955 3.864023 1.292381 

0.890211 0.507995 4.358518 
0.507995 0.917840 4.497905 
4.358518 4.497905 0.937005 

0.634082 0.427995 4.714464 
0.427995 0.368725 3.486909 
4.714464 3.486909 0.134708 

0.092297 0.309566 4.735943 
0.309566 -0.348281 2.448547 
4.735943 2.448547 -1.146471 

0.485170 0.416440 3.972709 
0.416440 0.496921 4.034967 
3.972709 4.034967 0.177539 

0.879045 0.374404 3.281419 
0.374404 1.110501 4.436998 
3.281419 4.436998 1.415522 

-0.026583 0.474456 3.785560 
0.474456 0.185584 4.764830 
3.785560 4.764830 -0.933398 

0.161925 0.375492 3.927158 
0.375492 0.117444 3.683670 
3.927158 3.683670 -0.549713 

-0.156798 0.232343 2.940899 
0.232343 -0.143779 3.145776 
2.940899 3.145776 -0.872566 

-0.327100 0.038666 1.960675 
0.038666 -0.412574 0.771337 
1.960675 0.771337 -0.989089 

-0.505690 0.001314 1.649167 
0.001314 -0.578848 0.051146 
1.649167 0.051146 -1.337396 

0.523941 0.002621 1.521342 
0.002621 0.463720 0.097994 
1.521342 0.097994 1.090042 

0.555131 0.027562 1.999397 
0.027562 0.442629 0.689784 
1.999397 0.689784 1.065209 

0.673809 0.214968 2.847598 
0.214968 0.678372 2.956967 
2.847598 2.956967 1.088220 

-0.001925 0.371735 3.148041 
0.371735 0.271603 4.514237 
3.148041 4.514237 -0.606114 

-0.396087 0.380378 3.179825 
0.380378 -0.118139 4.541252 
3.179825 4.541252 -1.524716 

0.047769 0.302548 3.096671 
0.302548 0.171652 3.763432 
3.096671 3.763432 -0.461240 

0.524376 0.287289 2.951325 
0.287289 0.665775 3.771225 
2.951325 3.771225 0.707495 

0.268948 0.232522 3.133003 
0.232522 0.227752 2.871402 
3.133003 2.871402 0.030913 

-0.052170 0.310758 3.664554 
0.310758 -0.130011 3.219914 
3.664554 3.219914 -0.934984 

0.887028 0.355487 3.946247 
0.355487 0.807062 3.488781 
3.946247 3.488781 1.159709 

0.940373 0.417952 4.111662 
0.417952 0.908993 3.944444 
4.111662 3.944444 1.198166 

0.865246 0.512473 4.252034 
0.512473 0.962233 4.668448 
4.252034 4.668448 0.936663 

-0.200095 0.548411 4.062579 
0.548411 0.061658 5.146468 
4.062579 5.146468 -1.473002 

0.505093 0.435518 3.578698 
0.435518 0.742085 4.693156 
3.578698 4.693156 0.403917 

0.700282 0.358758 3.651010 
0.358758 0.734079 3.814961 
3.651010 3.814961 0.837101 

1.294999 0.503837 4.520393 
0.503837 1.245763 4.321704 
4.520393 4.321704 1.813303 

0.723603 0.423613 5.197411 
0.423613 0.280897 3.139131 
5.197411 3.139131 0.056153 

0.768649 0.384583 4.927881 
0.384583 0.340710 2.915027 
4.927881 2.915027 0.338033 

-0.397339 0.529935 4.075651 
0.529935 -0.195228 4.938318 
4.075651 4.938318 -1.940674 

0.630328 0.414919 3.842987 
0.414919 0.698913 4.169465 
3.842987 4.169465 0.580666 

0.534784 0.439756 4.154618 
0.439756 0.515375 4.068525 
4.154618 4.068525 0.203845 

0.485285 0.418462 4.532814 
0.418462 0.279999 3.564358 
4.532814 3.564358 -0.115098 

-0.133835 0.288199 3.855071 
0.288199 -0.309698 2.972209 
3.855071 2.972209 -1.203366 

-0.519354 0.047155 2.567944 
0.047155 -0.679589 0.734151 
2.567944 0.734151 -1.601283 

-0.515025 -0.002891 1.945075 
-0.002891 -0.615620 -0.011186 
1.945075 -0.011186 -1.421277 

0.526567 0.004053 1.447361 
0.004053 0.470933 0.136230 
1.447361 0.136230 1.108539 

0.430360 0.031298 1.782469 
0.031298 0.343754 0.854401 
1.782469 0.854401 0.819659 

0.601388 0.209150 2.581629 
0.209150 0.694401 3.186855 
2.581629 3.186855 1.021969 

0.065067 0.389376 3.547509 
0.389376 0.200616 4.194031 
3.547509 4.194031 -0.602756 

0.256991 0.474206 4.189605 
0.474206 0.289641 4.341900 
4.189605 4.341900 -0.469372 

0.577843 0.441594 4.120441 
0.441594 0.575755 4.105550 
4.120441 4.105550 0.329098 

0.775020 0.401682 3.764525 
0.401682 0.849229 4.138222 
3.764525 4.138222 0.959528 

-0.397745 0.282230 3.381723 
0.282230 -0.438619 3.150771 
3.381723 3.150771 -1.627920 

0.318746 0.276096 2.845012 
0.276096 0.477547 3.775847 
2.845012 3.775847 0.257862 

0.522350 0.242626 2.584352 
0.242626 0.697500 3.653937 
2.584352 3.653937 0.824377 

0.571071 0.312151 2.986820 
0.312151 0.765612 4.056529 
2.986820 4.056529 0.798482 

0.442013 0.409985 3.475098 
0.409985 0.667041 4.551411 
3.475098 4.551411 0.302879 

0.876023 0.498153 3.888915 
0.498153 1.133286 4.991377 
3.888915 4.991377 1.144662 

-0.552354 0.502514 4.120921 
0.502514 -0.428869 4.646839 
4.120921 4.646839 -2.303132 

0.071832 0.391340 4.051356 
0.391340 0.003822 3.700097 
4.051356 3.700097 -0.823937 

0.215071 0.392178 4.034953 
0.392178 0.152671 3.723937 
4.034953 3.723937 -0.482651 

0.171076 0.364180 4.459484 
0.364180 -0.095090 3.089141 
4.459484 3.089141 -0.794370 

0.736748 0.417321 4.049764 
0.417321 0.713284 3.956395 
4.049764 3.956395 0.739593 

0.719051 0.509933 3.818339 
0.509933 1.022753 5.146857 
3.818339 5.146857 0.801270 

0.176073 0.459625 4.126626 
0.459625 0.205618 4.264119 
4.126626 4.264119 -0.623534 

0.440929 0.399828 4.122454 
0.399828 0.357524 3.715435 
4.122454 3.715435 0.005813 

0.665422 0.320668 4.252474 
0.320668 0.415790 2.896115 
4.252474 2.896115 0.463264 

-0.082815 0.294053 4.027930 
0.294053 -0.304487 2.877082 
4.027930 2.877082 -1.170667 

-0.552729 0.067255 2.855518 
0.067255 -0.745431 0.921524 
2.855518 0.921524 -1.772054 

-0.552830 0.008035 2.118158 
0.008035 -0.670390 0.184473 
2.118158 0.184473 -1.550197 

0.516636 0.002322 1.433699 
0.002322 0.462490 0.124387 
1.433699 0.124387 1.090157 

0.518862 0.037834 2.083724 
0.037834 0.418732 0.944907 
2.083724 0.944907 0.971039 

1.171463 0.267063 3.581271 
0.267063 1.066337 2.958059 
3.581271 2.958059 1.987949 

0.860047 0.453239 4.501648 
0.453239 0.720340 3.872920 
4.501648 3.872920 0.790921 

0.383379 0.523117 4.210677 
0.523117 0.511342 4.756197 
4.210677 4.756197 -0.176026 

0.355018 0.424931 3.344436 
0.424931 0.694234 4.913604 
3.344436 4.913604 0.163456 

0.811524 0.351658 3.118334 
0.351658 1.066047 4.378485 
3.118334 4.378485 1.337079 

1.149222 0.325988 3.465033 
0.325988 1.184562 3.687266 
3.465033 3.687266 1.978053 

0.971968 0.419065 3.453109 
0.419065 1.235433 4.721420 
3.453109 4.721420 1.559106 

-0.103915 0.343980 3.371448 
0.343980 -0.003614 3.896831 
3.371448 3.896831 -0.933062 

0.181869 0.342276 3.322795 
0.342276 0.297202 3.941127 
3.322795 3.941127 -0.246907 

-0.118359 0.355399 2.958435 
0.355399 0.204989 4.595257 
2.958435 4.595257 -0.809891 

-0.197497 0.314458 2.737324 
0.314458 0.108746 4.383355 
2.737324 4.383355 -0.915770 

0.225815 0.301091 2.885335 
0.301091 0.426707 4.011542 
2.885335 4.011542 0.024063 

0.295697 0.293096 3.234761 
0.293096 0.345432 3.504965 
3.234761 3.504965 0.061601 

-0.120882 0.304510 3.375576 
0.304510 -0.105691 3.434262 
3.375576 3.434262 -0.965962 

0.377964 0.291495 3.259084 
0.291495 0.407524 3.439738 
3.259084 3.439738 0.248880 

1.074020 0.382119 3.234082 
0.382119 1.353306 4.611304 
3.234082 4.611304 1.894729 

0.670413 0.460212 3.935779 
0.460212 0.797511 4.514104 
3.935779 4.514104 0.634835 

0.587577 0.507880 4.608299 
0.507880 0.495724 4.233052 
4.608299 4.233052 0.084419 

0.634443 0.438037 4.924355 
0.438037 0.300492 3.417911 
4.924355 3.417911 0.007749 

0.495557 0.306126 5.006377 
0.306126 -0.013314 2.317523 
5.006377 2.317523 -0.353296 

-0.063584 0.292110 4.037695 
0.292110 -0.278653 2.845893 
4.037695 2.845893 -1.111614 

-0.502204 0.075548 2.552675 
0.075548 -0.638722 1.154602 
2.552675 1.154602 -1.555897 

-0.501688 0.016279 1.924059 
0.016279 -0.596483 0.363047 
1.924059 0.363047 -1.385411 

0.423703 0.001856 1.486514 
0.001856 0.366851 0.090934 
1.486514 0.090934 0.861918 

0.749079 0.021480 2.092028 
0.021480 0.635699 0.646105 
2.092028 0.646105 1.510005 

0.352687 0.239316 3.509192 
0.239316 0.207959 2.634757 
3.509192 2.634757 0.101046 

0.681601 0.458666 3.973503 
0.458666 0.783793 4.427517 
3.973503 4.427517 0.659598 

0.757072 0.537647 3.773046 
0.537647 1.173418 5.512244 
3.773046 5.512244 0.914318 

0.713823 0.583517 4.333936 
0.583517 0.908693 5.141383 
4.333936 5.141383 0.533456 

-0.624899 0.542206 4.708919 
0.542206 -0.704893 4.337064 
4.708919 4.337064 -2.788173 

0.104384 0.446555 4.029471 
0.446555 0.164831 4.282468 
4.029471 4.282468 -0.717649 

0.807986 0.433419 3.314964 
0.433419 1.193750 5.085265 
3.314964 5.085265 1.246035 

0.665599 0.322575 3.163099 
0.322575 0.814210 3.948988 
3.163099 3.948988 0.956517 

-0.856437 0.330255 3.122369 
0.330255 -0.695126 3.984234 
3.122369 3.984234 -2.588920 

0.729970 0.366506 2.985702 
0.366506 1.089204 4.766501 
2.985702 4.766501 1.179639 

0.063819 0.318274 2.651232 
0.318274 0.434843 4.587255 
2.651232 4.587255 -0.251772 

0.062172 0.235113 2.541530 
0.235113 0.236821 3.585850 
2.541530 3.585850 -0.224182 

0.302393 0.197309 2.480725 
0.197309 0.393387 3.079020 
2.480725 3.079020 0.348114 

0.481825 0.229210 2.419217 
0.229210 0.686118 3.683059 
2.419217 3.683059 0.785586 

0.231860 0.209450 2.291604 
0.209450 0.422239 3.521437 
2.291604 3.521437 0.241389 

-0.160743 0.330053 2.890005 
0.330053 0.110121 4.300838 
2.890005 4.300838 -0.865481 

0.246147 0.390832 3.758172 
0.390832 0.287868 3.961072 
3.758172 3.961072 -0.276584 

0.491709 0.391580 4.477761 
0.391580 0.260503 3.354074 
4.477761 3.354074 -0.069797 

0.198445 0.356415 4.973658 
0.356415 -0.244675 2.739233 
4.973658 2.739233 -1.027969 

0.504606 0.296683 4.246236 
0.296683 0.226732 2.624443 
4.246236 2.624443 0.115764 

-0.612409 0.229722 2.922331 
0.229722 -0.599094 3.079047 
2.922331 3.079047 -1.929425 

-0.335620 0.061543 2.035836 
0.061543 -0.408923 1.189995 
2.035836 1.189995 -1.029603 

-0.488648 0.014554 1.596855 
0.014554 -0.553875 0.382447 
1.596855 0.382447 -1.287638 

0.454472 -0.003454 1.286186 
-0.003454 0.412124 -0.045249 
1.286186 -0.045249 0.969414 

0.394497 0.022917 1.802214 
0.022917 0.288641 0.531625 
1.802214 0.531625 0.730803 

1.103294 0.165930 2.122756 
0.165930 1.218537 3.098923 
2.122756 3.098923 2.321426 

-0.496112 0.312025 2.431152 
0.312025 -0.027199 4.858095 
2.431152 4.858095 -1.497882 

0.334323 0.487696 3.734778 
0.487696 0.600805 4.920386 
3.734778 4.920386 -0.043778 

1.177852 0.521856 5.142057 
0.521856 0.899984 3.953517 
5.142057 3.953517 1.166980 

0.868705 0.660127 5.932802 
0.660127 0.432030 4.284866 
5.932802 4.284866 -0.089276 

0.813353 0.768848 5.473534 
0.768848 0.802524 5.425122 
5.473534 5.425122 0.086226 

-0.265169 0.598830 4.578184 
0.598830 -0.168951 4.981265 
4.578184 4.981265 -1.892163 

0.056541 0.414325 4.093571 
0.414325 0.010183 3.867459 
4.093571 3.867459 -0.888998 

0.808959 0.392942 3.668338 
0.392942 0.904512 4.140191 
3.668338 4.140191 1.088904 

0.555317 0.466670 3.815359 
0.466670 0.755755 4.703134 
3.815359 4.703134 0.429419 

0.700038 0.467113 4.172305 
0.467113 0.734517 4.317827 
4.172305 4.317827 0.587408 

0.347542 0.401781 3.963341 
0.401781 0.340129 3.907547 
3.963341 3.907547 -0.128496 

0.332786 0.308760 3.641098 
0.308760 0.267677 3.260538 
3.641098 3.260538 -0.017763 

0.514821 0.346974 3.428928 
0.346974 0.603056 3.874813 
3.428928 3.874813 0.506595 

-0.144530 0.283371 3.467958 
0.283371 -0.200960 3.115912 
3.467958 3.115912 -1.057837 

0.835072 0.374930 3.960648 
0.374930 0.777627 3.669907 
3.960648 3.669907 1.006122 

0.819887 0.412335 4.325595 
0.412335 0.688540 3.685837 
4.325595 3.685837 0.792838 

-0.079664 0.315639 4.322419 
0.315639 -0.361147 2.774269 
4.322419 2.774269 -1.308309 

-0.211291 0.272205 3.864495 
0.272205 -0.416206 2.651139 
3.864495 2.651139 -1.392956 

0.398490 0.253086 2.965999 
0.253086 0.456080 3.304191 
2.965999 3.304191 0.403958 

-0.109566 0.160960 2.139119 
0.160960 -0.016489 2.965081 
2.139119 2.965081 -0.521809 

-0.157985 0.034872 1.585248 
0.034872 -0.204972 0.857875 
1.585248 0.857875 -0.519613 

-0.462676 0.011152 1.357473 
0.011152 -0.509477 0.326644 
1.357473 0.326644 -1.186390 

0.365036 -0.007436 0.864030 
-0.007436 0.342244 -0.266248 
0.864030 -0.266248 0.811940 

0.049128 0.020941 1.147513 
0.020941 0.000363 0.892098 
1.147513 0.892098 0.035293 

0.976183 0.148888 1.596356 
0.148888 1.261426 3.670228 
1.596356 3.670228 2.157080 

0.423540 0.301835 2.828460 
0.301835 0.643515 4.037142 
2.828460 4.037142 0.537399 

0.799377 0.444164 4.444401 
0.444164 0.670087 3.857063 
4.444401 3.857063 0.674310 

0.255528 0.422236 4.761170 
0.422236 -0.037217 3.389109 
4.761170 3.389109 -0.785172 

0.701940 0.442340 4.627915 
0.442340 0.493695 3.687264 
4.627915 3.687264 0.341842 

0.727952 0.579150 4.709540 
0.579150 0.744042 4.785054 
4.709540 4.785054 0.354346 

-0.474686 0.583343 4.622496 
0.583343 -0.428233 4.804514 
4.622496 4.804514 -2.396012 

0.242034 0.454359 4.278246 
0.454359 0.199328 4.080469 
4.278246 4.080469 -0.545470 

0.729657 0.413723 4.439906 
0.413723 0.555599 3.623627 
4.439906 3.623627 0.515284 

0.652597 0.562672 4.810688 
0.562672 0.577784 4.505920 
4.810688 4.505920 0.121309 

-0.072902 0.513954 4.934429 
0.513954 -0.297702 3.968163 
4.934429 3.968163 -1.655682 

0.131846 0.512015 5.010960 
0.512015 -0.122369 3.912064 
5.010960 3.912064 -1.214957 

0.957878 0.403739 4.645806 
0.403739 0.697178 3.371183 
4.645806 3.371183 0.939009 

0.387474 0.404370 4.618131 
0.404370 0.132614 3.396412 
4.618131 3.396412 -0.383027 

-0.167899 0.346460 4.555793 
0.346460 -0.486595 2.891458 
4.555793 2.891458 -1.635700 

-0.121468 0.351983 3.864117 
0.351983 -0.194891 3.460851 
3.864117 3.460851 -1.189365 

1.166226 0.321747 3.373591 
0.321747 1.229275 3.727103 
3.373591 3.727103 2.055238 

0.351584 0.246789 3.206687 
0.246789 0.312655 2.967077 
3.206687 2.967077 0.197410 

0.224494 0.240956 3.261650 
0.240956 0.155065 2.829420 
3.261650 2.829420 -0.120909 

0.517623 0.275074 3.384204 
0.275074 0.476707 3.144763 
3.384204 3.144763 0.513585 

-0.286951 0.209648 2.985044 
0.209648 -0.329250 2.778709 
2.985044 2.778709 -1.197171 

-0.627652 0.045040 1.940341 
0.045040 -0.704159 0.904967 
1.940341 0.904967 -1.679564 

-0.311218 0.009040 1.361157 
0.009040 -0.357464 0.296098 
1.361157 0.296098 -0.833096 

0.092366 -0.004174 0.453730 
-0.004174 0.084143 -0.261932 
0.453730 -0.261932 0.205069 

0.306956 0.001861 0.761643 
0.001861 0.292880 0.831349 
0.761643 0.831349 0.702136 

0.071454 0.162182 2.068714 
0.162182 0.208911 3.076640 
2.068714 3.076640 -0.063103 

0.338942 0.239620 3.565065 
0.239620 0.200090 2.661913 
3.565065 2.661913 0.046905 

0.530612 0.323061 4.361358 
0.323061 0.261924 2.920276 
4.361358 2.920276 0.106841 

0.220694 0.409592 4.826945 
0.409592 -0.110096 3.274066 
4.826945 3.274066 -0.900047 

0.128886 0.389744 4.389555 
0.389744 -0.071448 3.397409 
4.389555 3.397409 -0.871377 

-0.785393 0.330529 3.705472 
0.330529 -0.848645 3.381283 
3.705472 3.381283 -2.651517 

0.006136 0.380813 3.592008 
0.380813 0.104045 4.099635 
3.592008 4.099635 -0.769501 

0.932731 0.332358 3.591122 
0.332358 0.930154 3.601305 
3.591122 3.601305 1.408518 

0.071716 0.305588 3.939442 
0.305588 -0.104039 3.003603 
3.939442 3.003603 -0.772627 

0.100512 0.452722 4.348181 
0.452722 0.020892 3.996043 
4.348181 3.996043 -0.920818 

1.159946 0.399246 4.329386 
0.399246 1.010093 3.597628 
4.329386 3.597628 1.587551 

0.266359 0.378680 4.073853 
0.378680 0.167847 3.583992 
4.073853 3.583992 -0.386178 

-0.430542 0.302797 3.769338 
0.302797 -0.557924 3.069323 
3.769338 3.069323 -1.860087 

-0.033813 0.216453 3.545278 
0.216453 -0.213888 2.357539 
3.545278 2.357539 -0.834636 

0.314142 0.212070 3.343569 
0.212070 0.185704 2.485321 
3.343569 2.485321 0.075458 

-0.607968 0.283327 3.047826 
0.283327 -0.515414 3.579190 
3.047826 3.579190 -1.968655 

0.048042 0.282073 2.823494 
0.282073 0.208045 3.801628 
2.823494 3.801628 -0.371946 

0.218102 0.216542 3.079620 
0.216542 0.152628 2.650363 
3.079620 2.650363 -0.057579 

0.734218 0.216577 3.709355 
0.216577 0.506765 2.248355 
3.709355 2.248355 0.880168 

-0.027727 0.258918 3.416879 
0.258918 -0.109596 2.895783 
3.416879 2.895783 -0.766056 

-0.353106 0.173414 2.388140 
0.173414 -0.295112 2.901681 
2.388140 2.901681 -1.161687 

-0.007695 0.035993 1.381746 
0.035993 -0.032093 1.027254 
1.381746 1.027254 -0.133960 

-0.398077 0.007240 1.054528 
0.007240 -0.426981 0.298990 
1.054528 0.298990 -0.992281 

0.022652 -0.000483 0.129435 
-0.000483 0.021838 -0.097176 
0.129435 -0.097176 0.052127 

0.132338 -0.002977 0.261777 
-0.002977 0.129238 0.311431 
0.261777 0.311431 0.311641 

-0.411219 0.042510 1.204283 
0.042510 -0.381975 1.546939 
1.204283 1.546939 -1.021760 

-0.155328 0.090566 2.209599 
0.090566 -0.192911 1.701363 
2.209599 1.701363 -0.617001 

-0.107995 0.128520 3.001968 
0.128520 -0.236999 1.790635 
3.001968 1.790635 -0.734896 

0.440875 0.196060 4.008398 
0.196060 0.171175 2.041265 
4.008398 2.041265 0.168365 

-0.272510 0.295652 3.939132 
0.295652 -0.408131 2.970290 
3.939132 2.970290 -1.481466 

-0.942615 0.208384 3.093412 
0.208384 -0.993934 2.627725 
3.093412 2.627725 -2.716730 

-0.414659 0.194543 2.733066 
0.194543 -0.386081 2.839535 
2.733066 2.839535 -1.375340 

0.210957 0.200363 3.210167 
0.200363 0.126132 2.508906 
3.210167 2.508906 -0.079650 

0.246768 0.191349 3.525015 
0.191349 0.072409 2.198089 
3.525015 2.198089 -0.110790 

-0.620321 0.286712 3.746122 
0.286712 -0.713931 3.048412 
3.746122 3.048412 -2.209027 

-0.013448 0.285535 3.877473 
0.285535 -0.150014 2.895845 
3.877473 2.895845 -0.856732 

0.115575 0.256720 3.466014 
0.256720 0.049372 2.932701 
3.466014 2.932701 -0.404338 

-0.446922 0.196505 3.079055 
0.196505 -0.513217 2.533469 
3.079055 2.533469 -1.573185 

-0.675993 0.115762 2.544957 
0.115762 -0.748598 1.763943 
2.544957 1.763943 -1.926650 

0.043323 0.081559 1.908953 
0.081559 0.029696 1.715608 
1.908953 1.715608 -0.100287 

-0.355539 0.122732 2.037225 
0.122732 -0.292854 2.508635 
2.037225 2.508635 -1.044274 

-0.032743 0.221611 2.969743 
0.221611 -0.028428 2.965409 
2.969743 2.965409 -0.564584 

0.399928 0.147888 3.721281 
0.147888 0.134385 1.622635 
3.721281 1.622635 0.156875 

-0.502534 0.168410 3.971794 
0.168410 -0.809842 1.613440 
3.971794 1.613440 -2.012078 

-0.090817 0.245640 3.263112 
0.245640 -0.109647 2.963401 
3.263112 2.963401 -0.791473 

-0.887414 0.149830 2.175325 
0.149830 -0.823390 2.752364 
2.175325 2.752364 -2.329943 

-0.296194 0.032266 1.437362 
0.032266 -0.328618 0.885354 
1.437362 0.885354 -0.809940 

-0.282609 0.008370 0.976794 
0.008370 -0.304137 0.362288 
0.976794 0.362288 -0.712694 

0.016782 -0.000004 0.002545 
-0.000004 0.016755 -0.017759 
0.002545 -0.017759 0.039195 

-0.018925 -0.000177 0.014112 
-0.000177 -0.019388 0.084436 
0.014112 0.084436 -0.043917 

-0.023716 0.001034 0.146615 
0.001034 -0.018301 0.488562 
0.146615 0.488562 -0.055076 

-0.197914 0.009044 0.451149 
0.009044 -0.184192 0.834310 
0.451149 0.834310 -0.469769 

-0.144982 0.014763 0.782609 
0.014763 -0.142785 0.773103 
0.782609 0.773103 -0.368160 

0.000500 0.016890 0.815618 
0.016890 0.001812 0.880375 
0.815618 0.880375 -0.028717 

-0.709733 0.049916 0.993570 
0.049916 -0.623884 2.021618 
0.993570 2.021618 -1.693168 

-0.023575 0.047301 1.033160 
0.047301 0.037750 1.825163 
1.033160 1.825163 -0.114041 

-0.406969 0.035118 0.813539 
0.035118 -0.349224 1.688247 
0.813539 1.688247 -0.982938 

-0.433082 0.038135 0.993916 
0.038135 -0.396737 1.510932 
0.993916 1.510932 -1.059513 

-0.285467 0.037088 1.050610 
0.037088 -0.261130 1.380468 
1.050610 1.380468 -0.720480 

-0.303875 0.045521 1.001985 
0.045521 -0.239120 1.833808 
1.001985 1.833808 -0.756984 

-0.569037 0.056823 1.035457 
0.056823 -0.470440 2.169737 
1.035457 2.169737 -1.375821 

-0.615760 0.060917 1.141286 
0.060917 -0.534328 2.082389 
1.141286 2.082389 -1.500448 

-0.241861 0.046462 1.117012 
0.046462 -0.201786 1.638465 
1.117012 1.638465 -0.632122 

-0.176646 0.028498 0.801215 
0.028498 -0.141662 1.396964 
0.801215 1.396964 -0.448133 

-0.362695 0.018024 0.588108 
0.018024 -0.334545 1.185117 
0.588108 1.185117 -0.863333 

-0.087237 0.016388 0.549600 
0.016388 -0.055820 1.224502 
0.549600 1.224502 -0.219776 

-0.588165 0.036169 0.939381 
0.036169 -0.552745 1.498331 
0.939381 1.498331 -1.412828 

-0.055797 0.028328 1.297705 
0.028328 -0.075024 0.820901 
1.297705 0.820901 -0.214054 

0.000146 0.027180 0.883157 
0.027180 0.018513 1.224111 
0.883157 1.224111 -0.037416 

-0.766054 0.044842 0.798989 
0.044842 -0.651789 2.218681 
0.798989 2.218681 -1.806725 

-0.408424 0.054975 1.078120 
0.054975 -0.337579 2.028097 
1.078120 2.028097 -1.017889 

0.045630 0.018290 0.858468 
0.018290 0.044260 0.837379 
0.858468 0.837379 0.061869 

-0.232644 0.006810 0.644581 
0.006810 -0.239417 0.425957 
0.644581 0.425957 -0.566795 

-0.023048 0.000026 -0.055340 
0.000026 -0.023148 -0.009193 
-0.055340 -0.009193 -0.053912 

-0.023440 -0.000117 -0.077752 
-0.000117 -0.023426 0.081958 
-0.077752 0.081958 -0.054961 

-0.068712 -0.001009 -0.106544 
-0.001009 -0.068099 0.212790 
-0.106544 0.212790 -0.160172 

-0.137616 -0.001075 -0.021793 
-0.001075 -0.131736 0.456511 
-0.021793 0.456511 -0.318485 

-0.163842 -0.000761 0.000061 
-0.000761 -0.154983 0.493075 
0.000061 0.493075 -0.374785 

-0.287133 -0.004255 -0.178682 
-0.004255 -0.272202 0.712280 
-0.178682 0.712280 -0.658272 

-0.370550 -0.007371 -0.117340 
-0.007371 -0.314637 1.402784 
-0.117340 1.402784 -0.847706 

-0.546147 0.005034 0.196915 
0.005034 -0.499236 1.317688 
0.196915 1.317688 -1.263269 

-0.382597 0.009046 0.306154 
0.009046 -0.343610 1.251524 
0.306154 1.251524 -0.892712 

-0.364054 0.005122 0.209650 
0.005122 -0.327891 1.152959 
0.209650 1.152959 -0.842476 

-0.416877 0.001889 0.089060 
0.001889 -0.377336 1.163107 
0.089060 1.163107 -0.958857 

-0.443040 -0.002444 0.005962 
-0.002444 -0.396486 1.287691 
0.005962 1.287691 -1.018007 

-0.504053 0.002133 0.103764 
0.002133 -0.431291 1.631475 
0.103764 1.631475 -1.160923 

-0.498017 0.011624 0.304013 
0.011624 -0.427334 1.646237 
0.304013 1.646237 -1.154621 

-0.453874 0.010023 0.331855 
0.010023 -0.411150 1.285588 
0.331855 1.285588 -1.054718 

-0.441908 0.008320 0.306064 
0.008320 -0.411218 1.110516 
0.306064 1.110516 -1.030092 

-0.308548 0.006769 0.261954 
0.006769 -0.282519 1.025726 
0.261954 1.025726 -0.720769 

-0.343128 0.003597 0.187202 
0.003597 -0.325152 0.850518 
0.187202 0.850518 -0.798934 

-0.240039 0.003369 0.211818 
0.003369 -0.215911 0.958793 
0.211818 0.958793 -0.556846 

-0.302782 0.001335 0.072228 
0.001335 -0.280887 0.754454 
0.072228 0.754454 -0.687682 

-0.402638 -0.004855 -0.121251 
-0.004855 -0.376180 0.959735 
-0.121251 0.959735 -0.924748 

-0.418297 0.000095 0.043561 
0.000095 -0.348889 1.608376 
0.043561 1.608376 -0.964454 

-0.440682 0.015832 0.462252 
0.015832 -0.397517 1.385042 
0.462252 1.385042 -1.033064 

-0.239633 0.012387 0.633880 
0.012387 -0.235534 0.751624 
0.633880 0.751624 -0.582101 

-0.347952 0.007878 0.626986 
0.007878 -0.352600 0.479664 
0.626986 0.479664 -0.833089 

-0.155350 0.092589 0.388376 
0.092589 -0.216081 0.232112 
0.388376 0.232112 -0.300196 

-0.040326 0.315422 0.474326 
0.315422 0.148408 0.527619 
0.474326 0.527619 0.087273 

-0.334453 0.169183 0.344658 
0.169183 0.421631 0.595867 
0.344658 0.595867 -0.646027 

0.100995 0.154200 0.134989 
0.154200 0.801044 0.988566 
0.134989 0.988566 0.085252 

-0.061482 0.118655 0.046853 
0.118655 0.345135 0.764896 
0.046853 0.764896 -0.539005 

0.259645 0.214498 0.032524 
0.214498 0.426300 0.740691 
0.032524 0.740691 -0.045840 

0.102273 0.333870 0.112062 
0.333870 0.300066 0.811797 
0.112062 0.811797 -0.158701 

-0.279393 0.252624 0.224265 
0.252624 0.264816 0.692582 
0.224265 0.692582 -0.547972 

-0.037625 0.217968 0.038189 
0.217968 0.411934 0.637699 
0.038189 0.637699 -0.414399 

0.141474 0.347783 0.012475 
0.347783 0.230718 0.751656 
0.012475 0.751656 -0.160716 

-0.120099 0.249995 0.120160 
0.249995 0.217202 0.482243 
0.120160 0.482243 -0.543702 

0.125625 0.188953 0.117188 
0.188953 0.406759 0.514604 
0.117188 0.514604 -0.120566 

0.173809 0.229376 0.134581 
0.229376 0.298983 0.617268 
0.134581 0.617268 -0.140010 

0.124304 0.281230 0.208167 
0.281230 0.525597 0.742704 
0.208167 0.742704 0.078882 

-0.238524 0.137219 0.181145 
0.137219 0.232674 0.553712 
0.181145 0.553712 -0.697431 

-0.004374 0.155946 0.098123 
0.155946 0.432717 0.852151 
0.098123 0.852151 -0.246050 

-0.150085 0.149993 0.078732 
0.149993 0.224047 0.668599 
0.078732 0.668599 -0.520045 

0.001122 0.245488 -0.008319 
0.245488 0.200820 0.656709 
-0.008319 0.656709 -0.294712 

-0.014156 0.375710 0.007924 
0.375710 0.284150 0.729088 
0.007924 0.729088 -0.165472 

-0.229135 0.182151 0.027805 
0.182151 0.252732 0.348418 
0.027805 0.348418 -0.656599 

0.062427 0.128722 -0.071803 
0.128722 0.303240 0.523606 
-0.071803 0.523606 -0.015299 

0.128594 0.165237 -0.095621 
0.165237 0.323278 0.336970 
-0.095621 0.336970 0.171280 

0.258657 0.159700 -0.177638 
0.159700 0.381746 0.124408 
-0.177638 0.124408 0.213741 

0.002814 0.055139 -0.015599 
0.055139 -0.141357 0.001548 
-0.015599 0.001548 -0.157687 

0.184495 0.002434 -0.027492 
0.002434 0.105293 -0.171891 
-0.027492 -0.171891 0.204404 

0.230458 0.244353 0.360191 
0.244353 0.007233 0.321584 
0.360191 0.321584 0.099657 

0.042200 0.598681 0.797416 
0.598681 0.203896 0.717756 
0.797416 0.717756 -0.082083 

0.770712 0.352722 0.479994 
0.352722 1.877870 2.032874 
0.479994 2.032874 1.331824 

0.646076 0.376702 0.431243 
0.376702 1.680769 1.893474 
0.431243 1.893474 0.572617 

0.964369 0.475253 0.328234 
0.475253 1.739287 1.943880 
0.328234 1.943880 1.343539 

0.765707 0.664544 0.391092 
0.664544 1.396525 1.561779 
0.391092 1.561779 0.706664 

0.791743 0.780721 0.672980 
0.780721 1.711631 1.232098 
0.672980 1.232098 0.860951 

0.719498 0.811488 0.676214 
0.811488 1.354188 1.897635 
0.676214 1.897635 1.067613 

0.547986 0.837836 0.497421 
0.837836 1.052058 2.104281 
0.497421 2.104281 0.891824 

0.529396 1.077683 0.629630 
1.077683 1.554427 1.110595 
0.629630 1.110595 0.852247 

0.663989 0.831687 0.627092 
0.831687 1.623505 1.423385 
0.627092 1.423385 1.229430 

0.455628 0.725725 0.397043 
0.725725 1.050109 1.437996 
0.397043 1.437996 0.620099 

0.647705 0.726631 0.401375 
0.726631 1.439495 1.023407 
0.401375 1.023407 0.784268 

0.467467 0.550846 0.647835 
0.550846 1.403653 1.195182 
0.647835 1.195182 0.405108 

0.729236 0.411386 0.373525 
0.411386 1.432528 2.043648 
0.373525 2.043648 1.327901 

0.725522 0.480905 0.373780 
0.480905 1.379845 1.615155 
0.373780 1.615155 0.840179 

0.790356 0.466400 0.430493 
0.466400 1.030995 1.856179 
0.430493 1.856179 0.986474 

0.481472 0.749144 0.485662 
0.749144 0.620618 1.600210 
0.485662 1.600210 0.587688 

0.227567 0.965746 0.778326 
0.965746 1.076023 1.116856 
0.778326 1.116856 0.512543 

0.597511 0.723271 0.431945 
0.723271 1.643380 1.720380 
0.431945 1.720380 1.369043 

0.511739 0.749915 0.272934 
0.749915 1.241353 0.843149 
0.272934 0.843149 0.581369 

0.167135 0.599494 0.375767 
0.599494 0.860618 0.545011 
0.375767 0.545011 0.097262 

0.041421 0.238374 0.273249 
0.238374 0.782927 0.317724 
0.273249 0.317724 0.108912 

0.238640 0.224759 0.121430 
0.224759 0.495571 -0.276230 
0.121430 -0.276230 0.457338 

-0.129821 0.155534 0.210458 
0.155534 -0.071444 -0.156748 
0.210458 -0.156748 -0.222278 

0.350955 0.299288 0.432146 
0.299288 0.091383 0.174578 
0.432146 0.174578 -0.032243 

0.721301 0.767414 1.046638 
0.767414 0.470480 0.636714 
1.046638 0.636714 0.359028 

1.112668 0.235643 1.697705 
0.235643 1.952577 4.559860 
1.697705 4.559860 1.197753 

1.335032 0.265199 2.392091 
0.265199 1.411750 4.040449 
2.392091 4.040449 1.347520 

0.859804 0.400528 2.976263 
0.400528 1.249395 3.834082 
2.976263 3.834082 0.288439 

1.218995 0.530160 3.450009 
0.530160 2.078590 2.592057 
3.450009 2.592057 1.204704 

1.230989 0.464863 3.326908 
0.464863 1.536557 3.048178 
3.326908 3.048178 0.333290 

1.161830 0.481733 3.049937 
0.481733 0.679769 3.511963 
3.049937 3.511963 0.308526 

1.351711 0.826063 5.134141 
0.826063 1.120090 3.325551 
5.134141 3.325551 1.255358 

0.291041 0.750316 5.365096 
0.750316 1.183064 2.714627 
5.365096 2.714627 -0.588471 

0.265235 0.532344 3.333619 
0.532344 1.300853 3.723225 
3.333619 3.723225 0.225695 

0.370062 0.629434 3.426005 
0.629434 1.064656 2.594489 
3.426005 2.594489 0.732659 

0.198482 0.595010 3.220508 
0.595010 1.722701 2.610095 
3.220508 2.610095 0.466314 

0.815594 0.435493 1.514486 
0.435493 1.576665 3.192951 
1.514486 3.192951 1.176682 

0.441631 0.604413 2.319411 
0.604413 0.554009 3.620620 
2.319411 3.620620 0.174167 

0.800654 0.343174 2.435206 
0.343174 1.135448 3.754812 
2.435206 3.754812 0.626128 

1.480485 0.193055 2.284360 
0.193055 1.228020 3.163827 
2.284360 3.163827 0.979337 

1.328993 0.361596 4.475128 
0.361596 0.564246 2.090111 
4.475128 2.090111 0.685946 

0.529843 0.489118 4.606765 
0.489118 0.494079 2.880802 
4.606765 2.880802 -0.193222 

0.415262 0.404508 4.195918 
0.404508 1.207339 3.832800 
4.195918 3.832800 0.325527 

0.332730 0.281771 3.841415 
0.281771 1.548076 1.999855 
3.841415 1.999855 0.257248 

0.293391 0.174736 2.792105 
0.174736 1.743551 1.162955 
2.792105 1.162955 1.028587 

0.303251 -0.127340 2.918396 
-0.127340 1.321681 1.303827 
2.918396 1.303827 1.072460 

-0.731583 -0.080265 1.519879 
-0.080265 -0.315299 0.192481 
1.519879 0.192481 -1.488887 

0.225772 -0.111281 0.071829 
-0.111281 0.486488 -0.159994 
0.071829 -0.159994 1.044892 

0.148747 0.425441 0.515676 
0.425441 0.104752 0.204371 
0.515676 0.204371 0.015592 

0.728585 1.201315 0.704203 
1.201315 0.362876 0.826703 
0.704203 0.826703 0.305054 

0.901736 0.308935 0.896755 
0.308935 1.003854 5.764176 
0.896755 5.764176 -0.065626 

0.887502 0.566021 2.277849 
0.566021 0.582436 4.939014 
2.277849 4.939014 0.228953 

0.461827 0.827969 3.633952 
0.827969 0.584164 4.345562 
3.633952 4.345562 -0.073687 

0.145824 0.594390 2.799024 
0.594390 0.922119 4.427188 
2.799024 4.427188 -0.512526 

1.830448 0.269034 2.803297 
0.269034 1.997343 4.521918 
2.803297 4.521918 2.067816 

1.878248 0.468092 4.937490 
0.468092 0.743267 2.894079 
4.937490 2.894079 0.377789 

0.362062 0.527432 5.729391 
0.527432 0.075570 2.945636 
5.729391 2.945636 -1.207879 

0.699746 0.220136 5.191205 
0.220136 1.261597 4.587935 
5.191205 4.587935 0.770089 

0.215280 0.117076 4.991731 
0.117076 0.896193 3.973017 
4.991731 3.973017 -0.517203 

0.014459 0.471597 4.861429 
0.471597 0.874553 2.684256 
4.861429 2.684256 -0.135028 

-0.706705 0.225184 3.141162 
0.225184 0.267039 5.036190 
3.141162 5.036190 -1.493310 

0.226572 0.366232 2.189277 
0.366232 0.611810 4.772013 
2.189277 4.772013 0.262444 

0.295138 0.760175 3.248205 
0.760175 0.139861 2.768627 
3.248205 2.768627 -0.210368 

-0.504671 0.476012 2.796469 
0.476012 -0.282812 4.707179 
2.796469 4.707179 -1.177234 

0.282049 0.286496 2.415723 
0.286496 0.610709 2.733788 
2.415723 2.733788 -0.340511 

1.105711 0.609577 2.297305 
0.609577 0.912462 1.585941 
2.297305 1.585941 0.104653 

1.165221 0.490792 3.399121 
0.490792 0.841151 3.056816 
3.399121 3.056816 0.448008 

0.611627 0.254835 5.330642 
0.254835 0.857881 3.446720 
5.330642 3.446720 -0.046586 

-0.343255 0.245540 4.525163 
0.245540 0.780784 4.122209 
4.525163 4.122209 -0.627090 

-0.770104 0.228452 2.855703 
0.228452 0.564161 3.579225 
2.855703 3.579225 -0.355214 

-0.370775 -0.134094 2.029240 
-0.134094 1.246123 3.133707 
2.029240 3.133707 0.305936 

-0.157008 -0.029804 0.958248 
-0.029804 0.324167 0.216407 
0.958248 0.216407 0.072684 

-0.307218 -0.138821 0.514847 
-0.138821 0.013123 -0.050487 
0.514847 -0.050487 -0.054859 

0.342573 0.464057 0.488962 
0.464057 0.000326 0.200684 
0.488962 0.200684 -0.165210 

1.064468 1.016400 1.073099 
1.016400 0.264770 0.988960 
1.073099 0.988960 0.493966 

1.723946 0.389522 2.746881 
0.389522 1.352432 5.244130 
2.746881 5.244130 1.383575 

0.856926 0.545266 4.448573 
0.545266 -0.075658 2.993807 
4.448573 2.993807 -1.216703 

0.058805 0.697471 4.005600 
0.697471 -0.496308 4.520839 
4.005600 4.520839 -0.792005 

0.895101 0.696933 4.689293 
0.696933 0.828554 5.837062 
4.689293 5.837062 1.564981 

0.319670 0.485606 5.279240 
0.485606 0.368559 5.652340 
5.279240 5.652340 -0.761808 

0.123290 0.572890 3.655188 
0.572890 0.266259 2.943860 
3.655188 2.943860 -0.666071 

1.236774 0.652741 3.454015 
0.652741 1.374149 2.757095 
3.454015 2.757095 1.466150 

0.799072 0.548677 4.758425 
0.548677 1.369685 5.759150 
4.758425 5.759150 0.738104 

0.156471 0.186862 5.014430 
0.186862 1.180032 4.480331 
5.014430 4.480331 0.158344 

0.101762 0.340459 2.951137 
0.340459 0.873546 3.877077 
2.951137 3.877077 -0.162103 

1.316842 0.150390 2.409882 
0.150390 1.033788 4.634801 
2.409882 4.634801 1.612836 

0.866098 0.169320 5.218603 
0.169320 0.347588 3.239004 
5.218603 3.239004 -0.028150 

0.602856 0.225259 4.641363 
0.225259 0.550225 2.883689 
4.641363 2.883689 -0.543015 

-0.090621 0.208311 4.020250 
0.208311 -0.751114 2.919975 
4.020250 2.919975 -0.678647 

0.515888 0.174966 4.629296 
0.174966 0.553305 3.360584 
4.629296 3.360584 0.985551 

0.627717 0.626476 3.204569 
0.626476 1.277024 2.234983 
3.204569 2.234983 0.083224 

1.431311 0.794512 3.352836 
0.794512 1.758890 2.445476 
3.352836 2.445476 1.716835 

0.854874 0.776073 3.958277 
0.776073 1.063120 5.065649 
3.958277 5.065649 0.428781 

0.206448 0.356806 3.100150 
0.356806 0.543941 5.041997 
3.100150 5.041997 0.151971 

0.557629 0.367311 4.851285 
0.367311 1.088379 3.758442 
4.851285 3.758442 1.511115 

-1.101969 -0.542557 4.716513 
-0.542557 0.228003 4.241063 
4.716513 4.241063 -1.426111 

-0.958004 -0.448758 1.740088 
-0.448758 -0.399110 0.754422 
1.740088 0.754422 -1.097256 

-0.367723 -0.347368 0.421143 
-0.347368 0.077736 0.000788 
0.421143 0.000788 0.577636 

0.360742 0.369759 0.526181 
0.369759 -0.037220 0.178995 
0.526181 0.178995 -0.232229 

1.500649 0.964208 1.303120 
0.964208 0.304686 0.857782 
1.303120 0.857782 0.856322 

0.531224 0.407121 2.982580 
0.407121 0.212246 4.938947 
2.982580 4.938947 -0.613932 

1.419883 0.393263 2.912606 
0.393263 1.276465 2.567923 
2.912606 2.567923 1.400769 

1.203097 0.914862 4.141775 
0.914862 0.097507 3.131522 
4.141775 3.131522 0.381087 

0.354393 0.796068 5.915707 
0.796068 -0.375272 5.031341 
5.915707 5.031341 -1.151430 

-0.537986 0.168913 5.174917 
0.168913 -0.642312 5.373782 
5.174917 5.373782 -1.782714 

-0.096918 0.313722 4.056994 
0.313722 0.053690 2.707301 
4.056994 2.707301 0.072576 

0.907837 0.783965 4.635750 
0.783965 1.098319 4.359640 
4.635750 4.359640 0.888234 

-0.788620 0.809218 4.109966 
0.809218 0.020258 5.752849 
4.109966 5.752849 -2.031322 

0.160086 0.353566 2.789649 
0.353566 1.452132 6.194864 
2.789649 6.194864 0.872654 

0.457911 0.593905 3.036288 
0.593905 0.417487 5.039122 
3.036288 5.039122 -0.350892 

0.138337 0.684966 3.258271 
0.684966 0.419628 4.878065 
3.258271 4.878065 -0.547184 

0.626332 0.586845 2.976327 
0.586845 1.300720 3.352174 
2.976327 3.352174 1.055277 

0.743314 0.247432 2.973710 
0.247432 1.050989 3.422385 
2.973710 3.422385 0.177772 

1.231417 0.408432 3.137896 
0.408432 0.865977 1.445953 
3.137896 1.445953 0.912964 

1.057392 0.412267 4.754917 
0.412267 1.033336 4.361627 
4.754917 4.361627 0.631210 

-0.021763 0.261528 4.957251 
0.261528 0.312846 3.745014 
4.957251 3.745014 -1.112709 

1.350463 0.482000 3.529504 
0.482000 1.924559 4.523250 
3.529504 4.523250 1.265380 

0.850501 0.543429 5.191662 
0.543429 0.642352 5.306386 
5.191662 5.306386 -0.383723 

-0.057624 0.430532 5.885381 
0.430532 0.086857 5.335597 
5.885381 5.335597 -0.506930 

-1.782452 0.344898 4.061314 
0.344898 -0.706328 4.731106 
4.061314 4.731106 -2.035134 

-1.067380 -0.757230 1.712896 
-0.757230 0.356427 5.661065 
1.712896 5.661065 0.199458 

-0.185837 -0.173819 0.833323 
-0.173819 -0.020618 0.579803 
0.833323 0.579803 0.144613 

-0.291365 -0.283987 0.799316 
-0.283987 -0.066372 0.042628 
0.799316 0.042628 -0.170337 

0.516848 0.219466 0.485313 
0.219466 0.149046 0.181866 
0.485313 0.181866 -0.262063 

2.102123 0.726970 1.436225 
0.726970 0.888307 0.415403 
1.436225 0.415403 1.247610 

1.683969 0.165251 4.045302 
0.165251 0.434877 4.306855 
4.045302 4.306855 0.867829 

1.339367 0.113190 5.518282 
0.113190 0.545822 4.874834 
5.518282 4.874834 0.554940 

0.510260 0.746878 5.699208 
0.746878 -0.086017 2.163236 
5.699208 2.163236 -0.495002 

0.187948 0.675789 4.923789 
0.675789 0.178295 3.186739 
4.923789 3.186739 -0.334651 

-0.480495 0.180001 4.070657 
0.180001 -0.141203 3.280972 
4.070657 3.280972 -1.525981 

0.784051 0.266278 3.240019 
0.266278 1.349510 2.799420 
3.240019 2.799420 1.366309 

1.068912 0.689230 4.621146 
0.689230 1.020059 5.317472 
4.621146 5.317472 0.929043 

-0.254958 0.559395 4.781369 
0.559395 -0.785946 4.626340 
4.781369 4.626340 -1.727493 

0.275278 0.260067 3.681328 
0.260067 0.507180 6.941642 
3.681328 6.941642 -0.035590 

1.253794 0.546915 4.509606 
0.546915 0.713658 3.877556 
4.509606 3.877556 0.715219 

0.668433 0.541158 5.654034 
0.541158 0.326724 3.801868 
5.654034 3.801868 -0.730308 

0.128674 0.292831 4.964461 
0.292831 0.479252 4.827146 
4.964461 4.827146 -0.411488 

0.858042 0.112812 4.890129 
0.112812 1.611922 4.867240 
4.890129 4.867240 1.624667 

0.481198 0.523678 4.753230 
0.523678 0.973681 2.296869 
4.753230 2.296869 -0.116291 

-0.212890 0.314757 3.104021 
0.314757 0.315033 3.527305 
3.104021 3.527305 -1.377454 

1.105567 0.249664 2.561588 
0.249664 1.200079 4.039434 
2.561588 4.039434 1.481316 

0.633072 0.515821 3.945781 
0.515821 0.792254 5.227750 
3.945781 5.227750 -0.079017 

0.427938 0.434054 4.562049 
0.434054 0.467458 3.708408 
4.562049 3.708408 -0.066274 

-0.758427 0.431683 3.673578 
0.431683 -0.184391 4.285497 
3.673578 4.285497 -1.766608 

-0.437255 0.167472 3.040950 
0.167472 -0.392322 3.629145 
3.040950 3.629145 0.056208 

-1.039694 -0.690798 3.921660 
-0.690798 -0.582584 5.451595 
3.921660 5.451595 -1.283623 

-0.987261 -0.468700 2.079266 
-0.468700 -0.656639 0.796424 
2.079266 0.796424 -1.295130 

-0.157893 -0.422117 0.495641 
-0.422117 0.322552 0.085118 
0.495641 0.085118 0.777378 

0.303516 0.343450 0.701683 
0.343450 0.270401 0.191256 
0.701683 0.191256 0.239793 

1.165530 0.916678 0.773833 
0.916678 0.450555 0.667372 
0.773833 0.667372 0.246337 

1.696788 0.524293 1.355986 
0.524293 0.474764 3.342418 
1.355986 3.342418 0.218369 

1.629425 0.263396 3.697392 
0.263396 0.247942 4.652144 
3.697392 4.652144 0.454798 

0.814595 0.423415 6.072620 
0.423415 -0.141248 2.027741 
6.072620 2.027741 -0.268507 

0.600048 0.445591 5.890954 
0.445591 1.389490 3.761990 
5.890954 3.761990 0.791049 

0.001661 0.395810 4.893608 
0.395810 0.927327 3.331666 
4.893608 3.331666 0.688997 

0.222204 0.585525 3.253382 
0.585525 1.206980 4.176983 
3.253382 4.176983 -0.156189 

-0.083562 0.614296 2.592187 
0.614296 0.107200 4.232497 
2.592187 4.232497 -1.350020 

1.258018 0.493987 2.611829 
0.493987 0.350472 4.071916 
2.611829 4.071916 1.342569 

0.518758 0.591816 4.234624 
0.591816 -0.485693 5.831777 
4.234624 5.831777 -0.836529 

0.285065 0.546628 4.841032 
0.546628 0.804707 4.435503 
4.841032 4.435503 0.199124 

0.989312 0.380319 4.329471 
0.380319 1.803846 4.171362 
4.329471 4.171362 1.367274 

0.389256 0.520655 4.012538 
0.520655 0.244272 5.117724 
4.012538 5.117724 -0.251426 

-0.644411 0.223052 4.253522 
0.223052 -0.089286 5.633239 
4.253522 5.633239 -1.324374 

-0.381369 0.475443 3.756145 
0.475443 0.573336 3.925451 
3.756145 3.925451 0.241692 

0.675305 0.586001 2.467283 
0.586001 1.185184 4.170948 
2.467283 4.170948 1.042125 

1.074309 0.718089 2.394089 
0.718089 0.727193 4.564363 
2.394089 4.564363 -0.188370 

0.572985 0.673720 3.376746 
0.673720 0.144905 5.393333 
3.376746 5.393333 0.201772 

0.607534 1.022674 4.445028 
1.022674 0.922630 5.236586 
4.445028 5.236586 1.566974 

-0.521262 0.710290 4.057728 
0.710290 0.333650 3.745569 
4.057728 3.745569 -0.598899 

-0.163517 0.679449 2.359952 
0.679449 0.705872 3.158009 
2.359952 3.158009 0.661474 

-0.554761 -0.393205 2.136500 
-0.393205 0.097978 4.032519 
2.136500 4.032519 -0.185331 

-0.495712 -0.338261 1.383302 
-0.338261 -0.402137 0.854175 
1.383302 0.854175 -0.442946 

-0.290082 -0.376523 0.704301 
-0.376523 -0.137774 0.213179 
0.704301 0.213179 0.086170 

-0.003415 0.240894 0.447093 
0.240894 -0.318412 0.287779 
0.447093 0.287779 -0.878431 

1.616092 0.685784 1.668005 
0.685784 0.806991 0.569879 
1.668005 0.569879 1.555566 

1.672225 0.536911 3.529526 
0.536911 0.442443 2.614506 
3.529526 2.614506 0.178723 

0.680266 0.190740 3.975266 
0.190740 0.072985 2.588735 
3.975266 2.588735 -0.868554 

1.672508 0.663286 5.110099 
0.663286 1.600075 2.087742 
5.110099 2.087742 2.211181 

-0.150844 0.556553 5.166071 
0.556553 0.309007 5.783701 
5.166071 5.783701 -1.745348 

-0.141583 0.644159 3.906179 
0.644159 0.301155 5.559065 
3.906179 5.559065 0.282007 

0.351122 0.768791 4.359929 
0.768791 1.141253 5.480897 
4.359929 5.480897 0.585977 

0.628973 0.366300 3.284295 
0.366300 0.900749 3.221017 
3.284295 3.221017 0.240183 

1.718762 0.519889 3.775048 
0.519889 0.760954 4.305517 
3.775048 4.305517 1.159148 

0.259325 0.483238 5.304221 
0.483238 -0.898350 3.259215 
5.304221 3.259215 -1.426757 

0.250305 0.284268 5.621132 
0.284268 1.160154 4.906987 
5.621132 4.906987 0.524446 

0.270332 0.017936 4.798133 
0.017936 1.031066 6.343684 
4.798133 6.343684 -0.660278 

-0.699617 0.311728 3.644723 
0.311728 -1.404370 3.699139 
3.644723 3.699139 -1.992791 

0.483692 0.343290 3.815804 
0.343290 0.389921 4.707752 
3.815804 4.707752 1.118431 

-0.645936 0.792659 4.165626 
0.792659 -0.938442 4.691723 
4.165626 4.691723 -1.607533 

-0.051126 0.638190 3.181435 
0.638190 0.485643 5.051514 
3.181435 5.051514 -0.540401 

1.695292 0.410072 2.947858 
0.410072 1.274655 3.967351 
2.947858 3.967351 1.121400 

1.902789 0.513199 5.303947 
0.513199 0.033284 4.246500 
5.303947 4.246500 0.183638 

-0.096959 0.599521 7.283279 
0.599521 -0.976322 5.448914 
7.283279 5.448914 -2.131477 

-0.051986 0.355184 6.259671 
0.355184 0.579975 5.929462 
6.259671 5.929462 0.577226 

-1.204808 0.504601 5.066052 
0.504601 -0.121935 4.075879 
5.066052 4.075879 -1.514394 

-1.114334 -0.467104 3.038629 
-0.467104 0.330613 4.448480 
3.038629 4.448480 -0.348888 

-0.445282 -0.213728 1.143435 
-0.213728 -0.169493 0.697500 
1.143435 0.697500 -0.357989 

-0.348544 -0.270887 0.673910 
-0.270887 -0.257968 0.137583 
0.673910 0.137583 0.115160 

0.646632 0.236944 0.867770 
0.236944 0.041392 0.212589 
0.867770 0.212589 0.007220 

1.447024 0.564209 1.714197 
0.564209 0.517939 0.593409 
1.714197 0.593409 0.528359 

1.436834 0.316946 3.868142 
0.316946 1.124881 2.250781 
3.868142 2.250781 1.218601 

0.735402 0.457340 4.394154 
0.457340 0.971646 2.477806 
4.394154 2.477806 0.165555 

0.236565 0.897862 3.121257 
0.897862 0.660455 3.234409 
3.121257 3.234409 -0.682762 

1.392184 0.468726 3.378301 
0.468726 1.110058 5.782533 
3.378301 5.782533 1.325866 

0.709194 0.834384 5.177325 
0.834384 -0.437319 4.309676 
5.177325 4.309676 -0.677486 

-0.700998 0.539478 5.935122 
0.539478 -0.105027 6.338254 
5.935122 6.338254 -1.472522 

0.078676 0.143426 3.744918 
0.143426 0.925412 5.445219 
3.744918 5.445219 0.611355 

-0.017701 0.616865 3.639561 
0.616865 -0.219001 3.170629 
3.639561 3.170629 -0.699896 

-0.215258 1.153836 3.459123 
1.153836 -0.046766 2.481051 
3.459123 2.481051 0.070865 

0.031046 0.617473 2.111247 
0.617473 1.118541 5.914242 
2.111247 5.914242 0.167241 

0.653028 -0.143026 2.319787 
-0.143026 0.907423 6.349498 
2.319787 6.349498 0.596443 

1.064805 0.541866 3.976726 
0.541866 -0.100945 1.808975 
3.976726 1.808975 0.758641 

0.147971 0.408828 3.892816 
0.408828 -0.569569 5.105320 
3.892816 5.105320 -0.944061 

0.540392 0.689758 4.877547 
0.689758 -0.546059 2.734796 
4.877547 2.734796 0.237535 

-0.444869 0.636463 4.854142 
0.636463 -0.392830 5.129216 
4.854142 5.129216 -1.273151 

0.383259 0.218109 3.193495 
0.218109 0.871305 4.852240 
3.193495 4.852240 0.654170 

1.404210 0.621805 4.307353 
0.621805 1.163290 2.509351 
4.307353 2.509351 1.043820 

0.451181 0.434141 4.231748 
0.434141 -0.388731 2.994972 
4.231748 2.994972 -1.050019 

-0.428008 0.139391 4.456757 
0.139391 -0.459362 5.743337 
4.456757 5.743337 -1.040906 

-0.610959 -0.036531 5.419695 
-0.036531 -0.007093 3.524129 
5.419695 3.524129 -0.255238 

-1.496373 -0.671211 3.632818 
-0.671211 -0.281093 5.349648 
3.632818 5.349648 -1.149510 

-0.778130 -0.299821 1.364439 
-0.299821 -0.685748 0.768949 
1.364439 0.768949 -0.652148 

-0.371533 -0.345443 0.708489 
-0.345443 -0.093889 -0.038235 
0.708489 -0.038235 0.208918 

0.213703 0.110297 0.676318 
0.110297 -0.265912 0.160107 
0.676318 0.160107 -0.823631 

1.711399 0.482019 2.184577 
0.482019 1.115672 0.344429 
2.184577 0.344429 1.628005 

1.396095 0.335362 4.069040 
0.335362 1.298871 2.851685 
4.069040 2.851685 0.546286 

0.509361 0.189659 3.939530 
0.189659 0.539755 3.649605 
3.939530 3.649605 -0.451743 

1.442619 0.269331 4.259246 
0.269331 0.960657 3.638851 
4.259246 3.638851 1.604153 

0.736425 0.172217 5.554175 
0.172217 0.462108 5.338202 
5.554175 5.338202 -0.644941 

0.512549 0.234174 5.060930 
0.234174 0.476114 2.526235 
5.060930 2.526235 -0.399211 

0.414253 -0.195482 4.431516 
-0.195482 -0.082422 4.990036 
4.431516 4.990036 -0.335017 

-0.190311 -0.245416 5.585257 
-0.245416 -0.920436 5.909960 
5.585257 5.909960 -1.262878 

-0.158577 0.244591 5.064042 
0.244591 -0.420269 2.529102 
5.064042 2.529102 -0.429368 

-0.033606 1.139172 3.982438 
1.139172 0.003942 2.933822 
3.982438 2.933822 -0.507978 

0.097724 0.695065 3.861925 
0.695065 0.447529 6.855343 
3.861925 6.855343 -0.062607 

0.124361 0.259562 4.179013 
0.259562 0.076268 6.252799 
4.179013 6.252799 -0.148418 

-0.050912 0.815506 2.872858 
0.815506 -0.302287 1.833022 
2.872858 1.833022 -1.151380 

0.855877 0.650412 3.249293 
0.650412 0.396944 3.473509 
3.249293 3.473509 1.001474 

0.829605 0.898058 4.858248 
0.898058 0.214639 1.473000 
4.858248 1.473000 -0.336660 

-0.021583 0.523444 4.164385 
0.523444 -0.466333 4.565250 
4.164385 4.565250 -1.039244 

0.001502 0.465170 4.839210 
0.465170 -0.085215 5.080113 
4.839210 5.080113 0.117807 

-0.677150 0.682264 4.408111 
0.682264 0.048587 3.384723 
4.408111 3.384723 -1.172146 

0.742395 0.791414 2.264969 
0.791414 1.456087 2.808388 
2.264969 2.808388 0.931143 

0.515926 0.625992 2.929410 
0.625992 0.974233 3.010265 
2.929410 3.010265 0.727530 

0.405734 0.355135 3.990921 
0.355135 1.043710 4.923910 
3.990921 4.923910 1.179985 

-1.742478 -0.459043 2.990888 
-0.459043 -1.442388 5.120044 
2.990888 5.120044 -2.529276 

-0.470920 -0.124472 1.232727 
-0.124472 -0.345428 0.348805 
1.232727 0.348805 0.220598 

-0.529128 -0.187105 1.019058 
-0.187105 -0.058131 -0.017745 
1.019058 -0.017745 -0.232787 

0.386335 0.286828 0.840262 
0.286828 0.172048 0.012713 
0.840262 0.012713 0.027253 

0.747998 0.850435 1.593933 
0.850435 0.437077 0.618619 
1.593933 0.618619 0.288623 

0.845876 0.470919 2.180055 
0.470919 1.116353 4.195598 
2.180055 4.195598 0.750671 

0.904837 0.246431 2.470645 
0.246431 0.827264 4.166269 
2.470645 4.166269 0.741320 

0.765288 0.359441 3.508208 
0.359441 0.768767 4.611086 
3.508208 4.611086 0.609392 

-0.697554 0.148423 3.759895 
0.148423 -0.208531 4.614032 
3.759895 4.614032 -1.058741 

-0.089044 0.293653 2.200360 
0.293653 0.748305 3.387526 
2.200360 3.387526 0.161949 

1.522474 0.177644 1.219142 
0.177644 1.044332 4.387576 
1.219142 4.387576 1.418186 

0.935416 -0.120328 3.554080 
-0.120328 -0.213916 3.075711 
3.554080 3.075711 0.137492 

0.201958 0.083847 5.086731 
0.083847 -0.097251 2.559192 
5.086731 2.559192 -0.333128 

0.493501 0.590838 3.918655 
0.590838 0.003051 2.546196 
3.918655 2.546196 -0.328808 

0.921122 0.153761 4.358043 
0.153761 -0.161456 5.332430 
4.358043 5.332430 -0.450779 

0.466575 -0.340867 6.053602 
-0.340867 -0.359712 4.813873 
6.053602 4.813873 -0.934201 

1.214507 -0.132652 6.106623 
-0.132652 0.400587 1.822524 
6.106623 1.822524 0.611370 

-0.012894 0.214689 6.034199 
0.214689 -0.375029 2.498815 
6.034199 2.498815 -1.318731 

1.032927 0.346814 4.810056 
0.346814 1.469873 2.370913 
4.810056 2.370913 1.550020 

1.469094 0.203645 4.776217 
0.203645 0.699955 2.958475 
4.776217 2.958475 0.311784 

0.568097 0.034488 5.803199 
0.034488 -0.546842 3.913531 
5.803199 3.913531 -0.706927 

0.687761 0.153850 6.298737 
0.153850 0.404209 4.354853 
6.298737 4.354853 0.916338 

-0.052369 0.445044 6.083380 
0.445044 0.430324 4.437058 
6.083380 4.437058 -0.699235 

0.157546 0.504303 3.934601 
0.504303 1.130268 4.522132 
3.934601 4.522132 -0.052743 

0.148072 0.331237 3.247653 
0.331237 0.466697 5.843564 
3.247653 5.843564 0.166753 

-0.898828 -0.441154 4.521811 
-0.441154 -1.079109 2.640728 
4.521811 2.640728 -1.183318 

-0.898672 -0.202220 2.482292 
-0.202220 -0.358794 0.356245 
2.482292 0.356245 -1.108147 

-0.326568 -0.185568 0.803688 
-0.185568 0.221498 0.187423 
0.803688 0.187423 0.659339 

0.042096 0.348474 0.561294 
0.348474 -0.114566 0.092943 
0.561294 0.092943 -0.765377 

1.229101 0.863777 1.657489 
0.863777 0.536350 0.620290 
1.657489 0.620290 1.312195 

0.139513 0.672551 3.542187 
0.672551 0.122164 4.912714 
3.542187 4.912714 -0.504910 

-0.297877 0.517664 2.720348 
0.517664 0.296418 4.243299 
2.720348 4.243299 -0.925410 

0.235497 0.515865 2.154804 
0.515865 0.352864 3.776943 
2.154804 3.776943 -0.647489 

-0.113101 0.537182 2.391768 
0.537182 -0.344513 4.435830 
2.391768 4.435830 -0.548934 

0.861040 0.545843 2.730308 
0.545843 0.993562 5.433710 
2.730308 5.433710 1.532025 

-0.094712 0.540377 3.860813 
0.540377 0.111795 4.718122 
3.860813 4.718122 -1.129292 

0.724973 0.363893 2.860416 
0.363893 1.240089 2.313912 
2.860416 2.313912 1.016642 

0.308858 0.541563 2.779312 
0.541563 0.049574 2.572235 
2.779312 2.572235 -0.336458 

0.551585 0.656705 2.706377 
0.656705 0.406450 3.036682 
2.706377 3.036682 0.763067 

1.329085 0.443802 3.629939 
0.443802 1.125639 3.545146 
3.629939 3.545146 1.407082 

0.341703 -0.173323 3.663721 
-0.173323 0.112427 3.385428 
3.663721 3.385428 -0.955900 

1.045425 0.007212 3.027029 
0.007212 1.012013 2.409045 
3.027029 2.409045 0.990591 

1.064433 0.353829 4.838777 
0.353829 0.814884 1.956981 
4.838777 1.956981 0.925028 

-0.157891 0.407435 5.157617 
0.407435 0.712684 4.959991 
5.157617 4.959991 -0.592917 

0.021785 0.218934 3.200843 
0.218934 0.554517 3.955122 
3.200843 3.955122 0.265043 

0.271402 0.667107 2.671009 
0.667107 -0.282701 2.578175 
2.671009 2.578175 -0.120035 

-0.194721 0.683492 2.803810 
0.683492 -0.173904 4.296291 
2.803810 4.296291 -1.300136 

0.585894 0.532630 2.729030 
0.532630 0.916141 5.108505 
2.729030 5.108505 0.907453 

1.101336 0.307057 3.668281 
0.307057 1.079246 5.691234 
3.668281 5.691234 0.540164 

-0.171498 -0.091979 5.436813 
-0.091979 -0.492051 4.547052 
5.436813 4.547052 -0.798832 

-0.449205 -0.517362 4.848612 
-0.517362 0.332748 2.722704 
4.848612 2.722704 0.718023 

-1.088682 -0.333839 2.286885 
-0.333839 -0.731577 0.761084 
2.286885 0.761084 -1.561364 

-0.234322 -0.346998 0.825088 
-0.346998 0.093889 0.174053 
0.825088 0.174053 0.786222 

0.183843 0.274916 0.678766 
0.274916 -0.170667 0.168643 
0.678766 0.168643 -0.567860 

1.447694 0.865607 1.599045 
0.865607 0.604535 0.637542 
1.599045 0.637542 1.195013 

0.350057 0.746246 3.887531 
0.746246 -0.253291 3.342711 
3.887531 3.342711 -0.654906 

-0.737804 0.461205 3.339143 
0.461205 -0.160594 3.690915 
3.339143 3.690915 -1.408294 

1.063372 0.378111 1.768524 
0.378111 1.276388 3.263456 
1.768524 3.263456 1.401541 

1.266457 0.595745 3.013217 
0.595745 0.361474 2.966280 
3.013217 2.966280 0.273382 

0.707962 0.473435 5.177989 
0.473435 0.212329 5.100752 
5.177989 5.100752 -0.302569 

-0.633884 0.234725 5.274012 
0.234725 -0.863971 3.500021 
5.274012 3.500021 -1.586366 

-0.321790 0.271008 3.127012 
0.271008 0.156749 4.343332 
3.127012 4.343332 -0.662728 

0.984880 0.732953 2.871531 
0.732953 0.905206 2.196157 
2.871531 2.196157 1.232076 

0.698639 1.062285 4.888258 
1.062285 0.618258 3.108530 
4.888258 3.108530 -0.043335 

-0.476774 0.659237 3.760039 
0.659237 0.334834 4.888601 
3.760039 4.888601 -1.519033 

1.028468 0.140442 2.450258 
0.140442 1.432019 3.853541 
2.450258 3.853541 1.576018 

0.989619 0.363750 3.943376 
0.363750 1.338679 2.976560 
3.943376 2.976560 0.495663 

0.933837 0.714930 3.848234 
0.714930 1.184695 2.677536 
3.848234 2.677536 0.727569 

0.084042 0.469256 3.788274 
0.469256 0.196493 4.565922 
3.788274 4.565922 -1.187302 

0.026529 0.215929 3.670273 
0.215929 -0.093675 4.299226 
3.670273 4.299226 -0.406832 

0.323110 0.855786 4.470674 
0.855786 0.072909 1.992954 
4.470674 1.992954 0.336110 

0.647521 0.748148 3.831990 
0.748148 0.709198 3.119782 
3.831990 3.119782 0.152975 

0.095608 0.497763 3.974644 
0.497763 -0.159067 4.531420 
3.974644 4.531420 -1.293289 

0.394874 0.098555 3.900519 
0.098555 0.756370 6.096746 
3.900519 6.096746 0.561150 

-0.181677 0.152538 4.576394 
0.152538 -0.104803 3.282879 
4.576394 3.282879 -0.136053 

-1.880509 -0.438154 3.467184 
-0.438154 -0.912007 4.242268 
3.467184 4.242268 -2.414644 

-0.512737 -0.290793 1.307983 
-0.290793 -0.379830 0.609765 
1.307983 0.609765 0.084343 

-0.668657 -0.235086 0.941091 
-0.235086 -0.437017 0.104715 
0.941091 0.104715 -0.311508 

0.357908 0.159879 0.628084 
0.159879 -0.128748 0.151514 
0.628084 0.151514 -0.546199 

1.687596 0.633681 2.066913 
0.633681 0.779961 0.436723 
2.066913 0.436723 1.266308 

1.285113 0.590351 4.144695 
0.590351 0.662510 2.671207 
4.144695 2.671207 0.755614 

0.689223 0.166805 4.137745 
0.166805 0.793646 4.124380 
4.137745 4.124380 0.525340 

0.984038 0.080422 4.566378 
0.080422 1.401388 5.059564 
4.566378 5.059564 1.214122 

1.027115 0.299167 4.647071 
0.299167 0.876633 2.874756 
4.647071 2.874756 0.645553 

0.433055 0.062329 4.184119 
0.062329 0.143318 3.989234 
4.184119 3.989234 -0.607961 

0.867243 -0.018648 3.717171 
-0.018648 -0.127943 3.263048 
3.717171 3.263048 0.496883 

1.149352 -0.080943 5.007766 
-0.080943 0.385425 4.155587 
5.007766 4.155587 0.704984 

0.909879 0.189520 6.235777 
0.189520 0.652470 2.379668 
6.235777 2.379668 0.036628 

0.271624 0.555979 5.019950 
0.555979 0.408451 3.148264 
5.019950 3.148264 -0.582930 

0.079452 0.305445 4.283076 
0.305445 0.357687 4.266868 
4.283076 4.266868 -0.196820 

0.653008 0.401495 4.548505 
0.401495 1.469791 4.583231 
4.548505 4.583231 0.535323 

0.595203 0.262427 3.691154 
0.262427 1.042779 3.925401 
3.691154 3.925401 -0.123251 

1.103476 0.539262 3.864392 
0.539262 0.846532 4.103143 
3.864392 4.103143 0.734785 

1.086076 0.212324 4.817588 
0.212324 0.500175 3.987515 
4.817588 3.987515 0.402693 

0.642897 0.249244 4.856705 
0.249244 0.040534 3.360038 
4.856705 3.360038 0.158827 

-0.383398 0.849775 5.215093 
0.849775 -0.181189 1.868379 
5.215093 1.868379 -0.985844 

0.072285 0.574013 3.348377 
0.574013 1.482460 4.729347 
3.348377 4.729347 0.448082 

1.322106 0.529901 2.548281 
0.529901 0.928973 3.449151 
2.548281 3.449151 1.662450 

-0.175909 0.396195 4.354301 
0.396195 -0.431361 5.761177 
4.354301 5.761177 -1.360897 

-0.854527 0.337900 3.811289 
0.337900 -0.375851 3.239088 
3.811289 3.239088 -0.559313 

-0.798555 -0.265900 2.874039 
-0.265900 -0.214144 3.166296 
2.874039 3.166296 -0.030897 

-0.543957 -0.019156 1.666386 
-0.019156 -0.426368 0.389441 
1.666386 0.389441 -0.723906 

-0.107864 -0.140464 0.820149 
-0.140464 0.042265 0.068386 
0.820149 0.068386 0.439261 

0.356362 0.173574 0.763819 
0.173574 0.050581 0.073452 
0.763819 0.073452 -0.287521 

1.292704 0.673644 1.600054 
0.673644 0.763104 0.372101 
1.600054 0.372101 0.908334 

0.830169 0.730433 3.295536 
0.730433 0.756889 3.345716 
3.295536 3.345716 0.367669 

-0.032228 0.620503 3.331624 
0.620503 0.167057 5.351749 
3.331624 5.351749 -0.662964 

-0.521633 0.439342 2.597042 
0.439342 -0.010375 5.456706 
2.597042 5.456706 -1.193661 

-0.155452 0.558972 2.134708 
0.558972 0.485960 3.980610 
2.134708 3.980610 -0.430192 

0.695819 0.174533 2.103487 
0.174533 1.071058 3.637840 
2.103487 3.637840 0.774193 

1.065700 0.432373 3.104969 
0.432373 0.830867 2.642875 
3.104969 2.642875 0.453130 

0.422210 0.113682 3.746582 
0.113682 0.554942 3.287790 
3.746582 3.287790 -0.691598 

0.832118 0.009435 3.346015 
0.009435 0.879442 3.529331 
3.346015 3.529331 0.799043 

0.867959 0.288579 4.352335 
0.288579 0.710288 3.659583 
4.352335 3.659583 0.476940 

0.740564 0.507311 4.762368 
0.507311 0.722394 4.613512 
4.762368 4.613512 0.691104 

-0.863420 0.396263 4.374091 
0.396263 -0.298480 5.771827 
4.374091 5.771827 -1.764702 

0.532393 0.257405 2.497286 
0.257405 1.139895 5.388165 
2.497286 5.388165 0.767527 

1.254472 0.566814 3.110661 
0.566814 0.687249 3.381052 
3.110661 3.381052 0.539269 

1.552981 0.137078 4.740610 
0.137078 0.832455 5.187594 
4.740610 5.187594 0.995255 

0.429987 0.170727 5.732456 
0.170727 0.015044 3.285132 
5.732456 3.285132 -0.341113 

0.664863 0.665683 5.514103 
0.665683 1.083817 1.667997 
5.514103 1.667997 0.771170 

-0.589102 0.293678 4.378462 
0.293678 0.173587 6.208038 
4.378462 6.208038 -1.912350 

0.929336 0.434037 3.226573 
0.434037 1.004619 4.216129 
3.226573 4.216129 0.766610 

0.870908 0.267622 4.603479 
0.267622 0.189244 3.668052 
4.603479 3.668052 0.135040 

-0.342174 0.186909 5.297836 
0.186909 -0.767960 3.536132 
5.297836 3.536132 -0.576875 

-1.002784 -0.264435 4.681301 
-0.264435 -0.426412 3.780655 
4.681301 3.780655 -0.694158 

-0.860335 -0.132466 2.262274 
-0.132466 -0.434621 0.378746 
2.262274 0.378746 -1.026380 

-0.247988 -0.191283 0.879920 
-0.191283 0.284204 -0.009872 
0.879920 -0.009872 0.641758 

0.187183 0.237272 0.709507 
0.237272 -0.055180 0.132281 
0.709507 0.132281 -0.330555 

1.178013 0.881813 1.525478 
0.881813 0.640893 0.503709 
1.525478 0.503709 0.799156 

1.138306 0.868778 2.406547 
0.868778 0.439213 3.212944 
2.406547 3.212944 0.290737 

0.688525 0.760494 3.718328 
0.760494 0.111306 4.112496 
3.718328 4.112496 -0.380356 

0.604442 0.382559 4.673721 
0.382559 0.745942 3.826978 
4.673721 3.826978 0.017395 

0.489398 0.146892 4.458581 
0.146892 1.050705 3.297567 
4.458581 3.297567 0.272823 

0.533524 0.016862 4.729865 
0.016862 0.807919 4.348005 
4.729865 4.348005 0.499570 

-0.686446 0.464551 3.879049 
0.464551 -0.195825 2.525956 
3.879049 2.525956 -1.492185 

0.300954 0.287682 1.732870 
0.287682 1.353019 3.515334 
1.732870 3.515334 0.596658 

0.842976 0.595178 1.953344 
0.595178 1.053195 3.725958 
1.953344 3.725958 0.700084 

0.796629 0.595643 2.878876 
0.595643 0.629181 4.097830 
2.878876 4.097830 0.306513 

0.613678 0.366162 3.051175 
0.366162 0.796350 4.901510 
3.051175 4.901510 -0.056966 

1.226526 0.099650 4.514018 
0.099650 0.687526 4.580992 
4.514018 4.580992 1.303267 

-0.575244 -0.035581 5.465120 
-0.035581 -0.952275 5.501528 
5.465120 5.501528 -2.294511 

0.170479 0.078574 3.752226 
0.078574 0.012392 3.637776 
3.752226 3.637776 -0.255079 

0.594256 0.031260 3.667512 
0.031260 0.306422 4.656927 
3.667512 4.656927 -0.202490 

-0.056952 0.214282 5.019460 
0.214282 0.012700 2.553393 
5.019460 2.553393 -0.789036 

0.321211 0.434614 3.288159 
0.434614 0.958796 3.760415 
3.288159 3.760415 0.169915 

0.865834 0.235329 3.606385 
0.235329 0.539362 5.017324 
3.606385 5.017324 0.914971 

0.121358 0.437869 4.660173 
0.437869 -0.065046 3.891663 
4.660173 3.891663 -0.940816 

0.341284 0.360704 3.446393 
0.360704 0.197246 4.109703 
3.446393 4.109703 0.040208 

0.172746 0.513266 3.837624 
0.513266 -0.287383 2.513160 
3.837624 2.513160 0.330526 

-0.941562 -0.260451 4.935025 
-0.260451 -0.549621 3.240284 
4.935025 3.240284 -1.008491 

-0.981601 -0.313506 2.617658 
-0.313506 -0.483932 0.582966 
2.617658 0.582966 -1.172456 

-0.366563 -0.308030 0.921438 
-0.308030 0.232755 0.161402 
0.921438 0.161402 0.635496 

0.578931 0.290695 0.726657 
0.290695 0.111916 0.012057 
0.726657 0.012057 -0.098100 

1.667349 0.665149 1.666339 
0.665149 0.406130 0.633893 
1.666339 0.633893 0.700048 

1.754601 0.678804 3.881533 
0.678804 0.901845 3.625245 
3.881533 3.625245 1.279806 

0.795908 0.549999 5.381561 
0.549999 0.775870 2.873698 
5.381561 2.873698 0.310518 

-0.223680 0.459256 4.545740 
0.459256 0.892120 4.736734 
4.545740 4.736734 -0.267939 

-0.068200 0.440754 2.324577 
0.440754 0.828677 5.129259 
2.324577 5.129259 0.031963 

0.901900 0.589661 1.931210 
0.589661 1.355481 5.091282 
1.931210 5.091282 1.177413 

1.085518 0.794458 3.512532 
0.794458 1.355590 2.693814 
3.512532 2.693814 1.362383 

0.893544 0.325942 4.305113 
0.325942 1.425269 5.402628 
4.305113 5.402628 0.773593 

-0.096583 0.315893 4.099331 
0.315893 -0.145453 3.654670 
4.099331 3.654670 -1.090642 

0.131586 0.586498 3.432243 
0.586498 0.701508 4.658089 
3.432243 4.658089 0.288385 

-0.140977 0.320115 3.262890 
0.320115 0.367834 4.647441 
3.262890 4.647441 -0.542153 

0.076652 0.119432 2.279867 
0.119432 0.563615 4.785052 
2.279867 4.785052 -0.546374 

0.623542 -0.090023 2.264380 
-0.090023 0.260848 3.251212 
2.264380 3.251212 0.663973 

0.294604 0.034823 3.567143 
0.034823 -0.137010 3.321491 
3.567143 3.321491 -0.132945 

0.061515 -0.037610 3.755539 
-0.037610 0.186261 3.064234 
3.755539 3.064234 -0.499654 

0.264809 0.270085 2.853952 
0.270085 0.328615 2.871093 
2.853952 2.871093 0.198758 

1.410688 0.275611 2.741167 
0.275611 1.343687 5.307058 
2.741167 5.307058 1.405885 

1.171067 0.442114 4.879043 
0.442114 0.304953 4.596627 
4.879043 4.596627 0.130634 

0.600306 0.238641 4.755202 
0.238641 -0.258691 4.495503 
4.755202 4.495503 -0.086250 

0.495349 0.185489 5.037425 
0.185489 -0.284923 3.923631 
5.037425 3.923631 -0.148325 

-0.123212 0.194030 5.870252 
0.194030 -0.113474 1.739234 
5.870252 1.739234 -0.447569 

-0.909869 -0.513948 4.698012 
-0.513948 0.015238 3.646578 
4.698012 3.646578 -0.258974 

-0.953051 -0.399905 2.186102 
-0.399905 -0.607765 0.800735 
2.186102 0.800735 -1.104207 

-0.352899 -0.369394 0.923763 
-0.369394 0.063690 0.209200 
0.923763 0.209200 0.523061 

0.269268 0.119762 0.667674 
0.119762 -0.231749 0.116477 
0.667674 0.116477 -0.641614 

2.028505 0.557757 1.579253 
0.557757 0.963575 0.320418 
1.579253 0.320418 1.560061 

0.778130 0.425734 4.431403 
0.425734 0.422444 2.696427 
4.431403 2.696427 -0.649926 

0.579917 0.405293 4.199476 
0.405293 1.225861 4.867070 
4.199476 4.867070 0.426289 

0.824529 0.386636 3.217089 
0.386636 0.778651 6.058461 
3.217089 6.058461 0.445520 

0.772839 0.765695 5.110536 
0.765695 -0.278948 5.526881 
5.110536 5.526881 -0.089255 

-1.064593 1.082101 5.781590 
1.082101 -0.858859 4.887954 
5.781590 4.887954 -2.626152 

-0.435922 1.021434 2.860466 
1.021434 1.094202 4.221297 
2.860466 4.221297 -0.431320 

0.298973 0.436919 2.168083 
0.436919 1.274570 6.130924 
2.168083 6.130924 0.806742 

0.825526 0.675380 3.568116 
0.675380 0.725270 3.350753 
3.568116 3.350753 1.054782 

-1.018658 0.711680 3.200131 
0.711680 -0.728120 3.777760 
3.200131 3.777760 -2.533403 

0.362709 0.472646 2.068253 
0.472646 0.979966 4.561730 
2.068253 4.561730 1.335310 

-0.201034 0.510115 3.059751 
0.510115 -0.061279 4.391067 
3.059751 4.391067 -0.583337 

0.036750 0.476776 2.052714 
0.476776 0.512493 3.467796 
2.052714 3.467796 -0.191564 

0.321636 0.716319 1.894497 
0.716319 0.592067 2.697298 
1.894497 2.697298 0.578290 

0.203408 0.492608 2.185938 
0.492608 0.654842 3.714898 
2.185938 3.714898 0.333751 

0.698892 0.833815 1.805716 
0.833815 0.291149 3.573639 
1.805716 3.573639 0.330095 

0.407185 0.603506 2.812447 
0.603506 -0.185161 5.056075 
2.812447 5.056075 -0.978679 

0.727341 0.305686 3.057366 
0.305686 0.252761 3.991904 
3.057366 3.991904 -0.173480 

0.940944 0.196788 4.561100 
0.196788 0.009191 3.602445 
4.561100 3.602445 0.122320 

-0.367801 -0.015822 5.594969 
-0.015822 -0.489006 2.810241 
5.594969 2.810241 -0.917531 

-0.439946 -0.027380 4.322375 
-0.027380 0.464892 1.962754 
4.322375 1.962754 0.246707 

-1.286178 -0.602292 3.370183 
-0.602292 -0.698410 3.889808 
3.370183 3.889808 -1.504391 

-0.727625 -0.391011 1.688548 
-0.391011 -0.714231 0.781605 
1.688548 0.781605 -0.661856 

-0.316588 -0.344967 0.796555 
-0.344967 -0.073697 0.246419 
0.796555 0.246419 0.239154 

0.366794 0.051875 0.628806 
0.051875 -0.134009 0.001095 
0.628806 0.001095 -0.168669 

0.623130 0.636165 1.591677 
0.636165 0.608045 0.296110 
1.591677 0.296110 0.392183 

1.445367 0.584511 2.235039 
0.584511 1.556695 2.403024 
2.235039 2.403024 1.877906 

0.466710 0.510869 2.539337 
0.510869 -0.330849 5.728952 
2.539337 5.728952 -1.569487 

1.121571 0.314768 2.863073 
0.314768 0.007348 5.219002 
2.863073 5.219002 -0.096393 

1.819662 0.492205 5.461576 
0.492205 0.435840 3.315811 
5.461576 3.315811 0.927533 

0.455267 0.578467 7.030214 
0.578467 -0.580736 3.477068 
7.030214 3.477068 -0.335756 

-0.097869 0.583529 6.188644 
0.583529 -0.018617 6.094441 
6.188644 6.094441 -0.260359 

-0.375115 0.400256 5.229508 
0.400256 0.001977 5.711598 
5.229508 5.711598 -1.245890 

-0.292829 0.537230 3.848717 
0.537230 0.205587 4.064923 
3.848717 4.064923 -0.651477 

0.817824 0.729020 3.155255 
0.729020 0.440465 3.529551 
3.155255 3.529551 1.319561 

0.526960 0.736582 3.804179 
0.736582 0.536999 5.302811 
3.804179 5.302811 -0.276306 

0.561762 0.657409 4.428585 
0.657409 0.503726 4.430101 
4.428585 4.430101 0.733065 

0.083751 0.619576 4.226877 
0.619576 0.351975 4.390949 
4.226877 4.390949 -0.183734 

-0.045845 0.759041 3.397086 
0.759041 0.033463 2.685328 
3.397086 2.685328 -0.351298 

0.418887 0.614090 3.559977 
0.614090 0.335988 4.819260 
3.559977 4.819260 0.364607 

0.317742 0.787739 3.385724 
0.787739 -0.198376 2.801046 
3.385724 2.801046 -0.753842 

1.168993 0.319716 3.708968 
0.319716 0.766176 3.343181 
3.708968 3.343181 1.205142 

0.920533 -0.145621 5.309996 
-0.145621 0.466050 3.381222 
5.309996 3.381222 0.335682 

-0.112817 -0.123105 5.002358 
-0.123105 -0.193286 2.361747 
5.002358 2.361747 -0.854689 

-0.930282 0.226012 3.645490 
0.226012 -0.395418 2.378127 
3.645490 2.378127 -0.955413 

-0.634758 0.259158 2.307189 
0.259158 0.037780 3.782767 
2.307189 3.782767 0.144651 

-0.485130 -0.276901 1.878822 
-0.276901 -0.075447 3.027531 
1.878822 3.027531 0.064175 

-0.257017 -0.041253 1.250180 
-0.041253 -0.109847 0.418904 
1.250180 0.418904 -0.235763 

-0.145932 -0.171194 0.742706 
-0.171194 -0.028224 0.271399 
0.742706 0.271399 0.148389 

0.367600 0.246608 0.536107 
0.246608 0.175750 -0.222000 
0.536107 -0.222000 0.200550 

0.359007 0.804092 1.015892 
0.804092 -0.086932 0.483481 
1.015892 0.483481 -0.149217 

1.530983 0.437740 0.887381 
0.437740 1.015922 5.015493 
0.887381 5.015493 1.181318 

1.474819 0.438650 2.852908 
0.438650 -0.390850 3.398908 
2.852908 3.398908 0.340904 

0.924987 0.336240 5.249511 
0.336240 -0.291180 3.697718 
5.249511 3.697718 0.296036 

0.113233 0.596581 4.987834 
0.596581 -0.124755 3.719898 
4.987834 3.719898 -0.767369 

0.450798 0.625347 3.587441 
0.625347 0.235665 3.643971 
3.587441 3.643971 0.291138 

0.501275 0.477681 5.258557 
0.477681 -0.290484 5.558511 
5.258557 5.558511 0.371522 

-0.783495 0.009739 5.334699 
0.009739 -1.147685 4.692122 
5.334699 4.692122 -2.004041 

0.195603 -0.052781 3.518942 
-0.052781 -0.166916 3.915999 
3.518942 3.915999 -0.223144 

0.797400 0.601744 4.750020 
0.601744 -0.075217 3.759948 
4.750020 3.759948 0.031183 

0.804061 0.403366 5.533749 
0.403366 0.194369 4.875080 
5.533749 4.875080 -0.035104 

0.010646 0.281429 5.558393 
0.281429 -0.756315 3.822150 
5.558393 3.822150 -1.651280 

-0.218211 0.085237 5.285321 
0.085237 -0.358328 4.521076 
5.285321 4.521076 -0.964854 

0.887872 0.145841 4.563037 
0.145841 0.467678 3.262922 
4.563037 3.262922 0.948843 

0.211569 0.063230 5.605561 
0.063230 -0.826524 4.109370 
5.605561 4.109370 -0.584076 

-0.480857 0.174187 5.721455 
0.174187 -0.930918 2.689827 
5.721455 2.689827 -1.124231 

-0.665039 0.121952 3.116714 
0.121952 -0.000092 4.139501 
3.116714 4.139501 -0.983878 

0.795672 -0.132264 2.583080 
-0.132264 1.191039 3.872307 
2.583080 3.872307 1.667563 

0.277832 0.200248 3.947661 
0.200248 -0.163349 2.778150 
3.947661 2.778150 -0.195768 

-0.070601 0.410916 2.692526 
0.410916 -0.565879 2.469787 
2.692526 2.469787 -0.415658 

0.121405 0.244175 3.807679 
0.244175 0.122243 3.366873 
3.807679 3.366873 0.325645 

-0.966942 -0.483263 4.420374 
-0.483263 -0.400383 3.178280 
4.420374 3.178280 -1.063718 

-0.945526 -0.368975 1.805471 
-0.368975 -0.535644 0.693057 
1.805471 0.693057 -1.141590 

-0.288437 -0.303278 0.511932 
-0.303278 0.100826 0.198343 
0.511932 0.198343 0.612918 

0.282871 0.255007 0.217430 
0.255007 0.188971 -0.206168 
0.217430 -0.206168 -0.136139 

1.402685 0.552717 0.436530 
0.552717 0.136175 0.382044 
0.436530 0.382044 0.744842 

1.022877 -0.100180 2.615862 
-0.100180 -0.628709 4.685998 
2.615862 4.685998 -0.321078 

0.882335 -0.101148 4.247767 
-0.101148 -0.600081 2.358888 
4.247767 2.358888 -0.141256 

0.620425 0.064087 4.299279 
0.064087 -0.606929 3.515963 
4.299279 3.515963 -0.005125 

-0.560901 0.262947 5.448419 
0.262947 -1.550173 3.648241 
5.448419 3.648241 -1.254906 

-0.446750 0.297229 4.560293 
0.297229 -0.483817 3.667814 
4.560293 3.667814 -0.603562 

-0.612162 0.367260 3.739917 
0.367260 -1.054824 3.554874 
3.739917 3.554874 -1.403962 

-0.385044 -0.162482 2.768290 
-0.162482 -0.901604 4.359613 
2.768290 4.359613 -0.418726 

0.795237 -0.013592 2.946647 
-0.013592 -0.054104 3.596499 
2.946647 3.596499 1.187932 

0.324969 0.492004 4.450381 
0.492004 -0.883855 2.515436 
4.450381 2.515436 -0.816064 

-0.331995 0.151997 3.735304 
0.151997 -0.580728 5.145744 
3.735304 5.145744 -0.803955 

0.614682 0.138479 3.653623 
0.138479 0.176090 2.780737 
3.653623 2.780737 1.528191 

-0.107659 0.046468 4.603443 
0.046468 -0.607250 3.436165 
4.603443 3.436165 -0.502527 

-0.687767 -0.129885 3.616649 
-0.129885 -0.863839 3.796905 
3.616649 3.796905 -1.462212 

-0.258719 -0.132663 2.781563 
-0.132663 -0.577847 2.178065 
2.781563 2.178065 -0.195884 

-0.117918 0.084660 3.494037 
0.084660 -0.670353 2.046176 
3.494037 2.046176 0.081737 

-0.993535 0.067592 3.337427 
0.067592 -1.414733 4.153497 
3.337427 4.153497 -1.659741 

-0.041535 -0.071092 2.183411 
-0.071092 -0.330829 4.698023 
2.183411 4.698023 -0.382859 

0.187168 0.258272 2.325846 
0.258272 -0.816967 2.776834 
2.325846 2.776834 -0.454354 

0.272449 0.590627 3.851958 
0.590627 -0.163790 2.501563 
3.851958 2.501563 0.689839 

-0.976714 0.231290 3.885569 
0.231290 -0.443901 2.679271 
3.885569 2.679271 -0.907019 

-1.146306 -0.542768 1.820323 
-0.542768 -0.328161 3.569542 
1.820323 3.569542 -0.494020 

-0.289810 -0.208964 0.808423 
-0.208964 -0.175477 0.590116 
0.808423 0.590116 0.093192 

-0.361115 -0.265243 0.728670 
-0.265243 -0.115903 0.196379 
0.728670 0.196379 -0.197113 

0.135640 0.093730 0.066641 
0.093730 0.100548 -0.024724 
0.066641 -0.024724 -0.030584 

1.055215 0.325328 0.045641 
0.325328 0.281319 0.150234 
0.045641 0.150234 0.531596 

0.479735 -0.253711 1.443882 
-0.253711 -0.891705 1.606061 
1.443882 1.606061 -0.503943 

0.525903 -0.450229 2.342448 
-0.450229 -0.628857 1.872688 
2.342448 1.872688 -0.265666 

0.598062 -0.525373 2.810212 
-0.525373 -0.834203 1.982796 
2.810212 1.982796 -0.544442 

0.293716 -0.584854 5.004516 
-0.584854 -1.017972 1.396982 
5.004516 1.396982 0.165660 

-0.829169 -0.596063 5.351888 
-0.596063 -1.186132 3.968804 
5.351888 3.968804 -0.980602 

-0.935873 -0.465929 3.450969 
-0.465929 -1.421905 2.049928 
3.450969 2.049928 -1.394304 

-0.010517 -0.579017 2.362461 
-0.579017 -0.968949 3.242949 
2.362461 3.242949 -0.571329 

0.258297 -0.560744 3.658048 
-0.560744 -0.688002 3.087208 
3.658048 3.087208 -0.171776 

0.574627 -0.309222 4.359738 
-0.309222 -0.497858 1.974590 
4.359738 1.974590 0.220254 

-0.458895 -0.600016 4.677737 
-0.600016 -1.554519 3.622800 
4.677737 3.622800 -1.618470 

-0.469152 -0.542516 4.470692 
-0.542516 -0.793781 3.664712 
4.470692 3.664712 -0.759903 

-0.256762 -0.570386 3.790538 
-0.570386 -0.612239 3.454126 
3.790538 3.454126 -0.030891 

-0.751227 -0.677187 4.017445 
-0.677187 -1.214907 2.581312 
4.017445 2.581312 -0.814505 

-1.142849 -0.499327 2.778299 
-0.499327 -1.059193 1.710810 
2.778299 1.710810 -1.327790 

0.301707 -0.103504 1.411470 
-0.103504 -0.097575 1.826451 
1.411470 1.826451 0.625400 

0.440649 -0.234850 2.356976 
-0.234850 -1.080150 2.115492 
2.356976 2.115492 -0.468723 

0.370724 -0.817043 3.192995 
-0.817043 -0.989045 3.825009 
3.192995 3.825009 -0.329812 

0.776892 -0.660757 4.822272 
-0.660757 -0.471110 1.169836 
4.822272 1.169836 0.384823 

-1.060093 -0.386539 5.376547 
-0.386539 -1.443386 1.679752 
5.376547 1.679752 -2.046482 

-0.919675 -0.515272 3.793314 
-0.515272 -0.632415 3.966876 
3.793314 3.966876 -0.078981 

-1.499560 -0.807930 2.696549 
-0.807930 -1.394847 3.421651 
2.696549 3.421651 -1.653028 

-0.625444 -0.354997 1.138312 
-0.354997 -0.374382 0.557703 
1.138312 0.557703 -0.468223 

-0.324181 -0.282263 0.460800 
-0.282263 0.023185 0.267512 
0.460800 0.267512 0.216048 

0.034489 0.014752 -0.006441 
0.014752 0.032478 -0.011282 
-0.006441 -0.011282 0.049035 

0.123934 0.104210 0.037822 
0.104210 0.034573 0.092611 
0.037822 0.092611 -0.003830 

0.332152 0.031148 0.007110 
0.031148 -0.054602 0.115808 
0.007110 0.115808 0.281963 

0.107434 -0.173731 0.256509 
-0.173731 -0.356039 0.725361 
0.256509 0.725361 -0.237922 

-0.080830 -0.218800 0.564849 
-0.218800 -0.291705 0.469707 
0.564849 0.469707 -0.093077 

0.245401 0.054714 0.238494 
0.054714 0.009891 0.398326 
0.238494 0.398326 0.264220 

-0.785713 -0.416528 0.640776 
-0.416528 -1.143936 2.105763 
0.640776 2.105763 -1.514071 

-0.271164 -0.301661 0.628302 
-0.301661 -0.435437 1.149259 
0.628302 1.149259 0.157548 

-0.155876 -0.211535 0.527215 
-0.211535 -0.533830 1.311681 
0.527215 1.311681 -0.490571 

-0.338618 -0.287467 0.624671 
-0.287467 -0.583869 1.335918 
0.624671 1.335918 -0.696847 

-0.344723 -0.151003 0.616941 
-0.151003 -0.427722 1.257323 
0.616941 1.257323 -0.580777 

-0.172816 -0.202185 0.514664 
-0.202185 -0.532681 1.213108 
0.514664 1.213108 -0.139962 

-0.458843 -0.313583 0.583501 
-0.313583 -0.805099 2.017235 
0.583501 2.017235 -0.968715 

-0.694374 -0.394947 0.809318 
-0.394947 -0.887064 2.081515 
0.809318 2.081515 -1.299222 

-0.553003 -0.323109 0.700079 
-0.323109 -0.554403 1.146828 
0.700079 1.146828 -0.378697 

-0.369546 -0.221329 0.473683 
-0.221329 -0.391097 1.117272 
0.473683 1.117272 -0.215772 

-0.414096 -0.085190 0.458181 
-0.085190 -0.468859 1.135399 
0.458181 1.135399 -0.781363 

0.400257 -0.022379 0.220841 
-0.022379 -0.095237 0.739310 
0.220841 0.739310 0.305928 

-0.254606 -0.452436 0.662289 
-0.452436 -0.819604 1.502029 
0.662289 1.502029 -1.041616 

-0.500440 -0.263252 0.828988 
-0.263252 -0.277037 0.519656 
0.828988 0.519656 -0.244046 

0.050828 0.004429 0.234849 
0.004429 -0.067057 0.622115 
0.234849 0.622115 0.454404 

-0.586400 -0.295538 0.498505 
-0.295538 -1.077647 2.289451 
0.498505 2.289451 -1.585808 

-0.673458 -0.575525 0.850435 
-0.575525 -0.904647 1.654600 
0.850435 1.654600 -0.674471 

-0.234236 -0.202033 0.582475 
-0.202033 -0.149262 0.559931 
0.582475 0.559931 -0.041039 

-0.221463 -0.139521 0.387838 
-0.139521 -0.045381 0.292694 
0.387838 0.292694 -0.090427 

-0.028375 0.011090 -0.034309 
0.011090 -0.007736 -0.013275 
-0.034309 -0.013275 -0.022216 

-0.014387 0.012892 -0.057241 
0.012892 0.003047 0.036295 
-0.057241 0.036295 0.031831 

-0.070438 -0.003011 -0.053606 
-0.003011 -0.309496 0.228762 
-0.053606 0.228762 -0.169771 

-0.060741 -0.145803 0.000490 
-0.145803 -0.328074 0.163883 
0.000490 0.163883 0.061254 

-0.291011 -0.187924 -0.014816 
-0.187924 -0.356872 0.313902 
-0.014816 0.313902 -0.095558 

-0.031071 -0.101719 -0.102996 
-0.101719 -0.173115 0.552395 
-0.102996 0.552395 -0.105265 

0.510032 -0.400367 -0.090912 
-0.400367 -0.119871 0.408470 
-0.090912 0.408470 0.899981 

-0.183187 -0.298367 0.155896 
-0.298367 -0.571664 0.872064 
0.155896 0.872064 -0.336028 

-0.110407 -0.198534 0.234650 
-0.198534 -0.329530 0.648134 
0.234650 0.648134 0.245973 

-0.079494 -0.257097 0.125223 
-0.257097 -0.234983 0.511739 
0.125223 0.511739 0.318361 

-0.008960 -0.279134 0.059535 
-0.279134 -0.093357 0.542914 
0.059535 0.542914 0.303637 

-0.052602 -0.216651 0.012636 
-0.216651 -0.466954 0.769351 
0.012636 0.769351 0.019291 

0.285429 -0.305056 0.075380 
-0.305056 -0.201946 0.681635 
0.075380 0.681635 0.576833 

0.201441 -0.397103 0.218341 
-0.397103 -0.105837 0.643243 
0.218341 0.643243 0.694566 

-0.089414 -0.316271 0.203131 
-0.316271 -0.292945 0.767744 
0.203131 0.767744 0.079284 

-0.111854 -0.190780 0.222501 
-0.190780 -0.266086 0.559976 
0.222501 0.559976 0.024643 

0.090969 -0.165030 0.190738 
-0.165030 0.036827 0.446188 
0.190738 0.446188 0.481311 

-0.171810 -0.082462 0.154131 
-0.082462 -0.428958 0.564910 
0.154131 0.564910 -0.207875 

-0.080433 -0.310403 0.158028 
-0.310403 -0.351680 0.276460 
0.158028 0.276460 0.480072 

-0.213290 -0.340545 -0.026861 
-0.340545 -0.122055 0.505542 
-0.026861 0.505542 -0.028694 

0.000223 -0.117860 -0.027702 
-0.117860 -0.270272 0.672012 
-0.027702 0.672012 -0.199165 

0.668304 -0.325679 0.057089 
-0.325679 -0.020633 0.522963 
0.057089 0.522963 1.036405 

0.057455 -0.413515 0.285108 
-0.413515 -0.476811 0.677232 
0.285108 0.677232 0.180631 

-0.044706 -0.159329 0.422287 
-0.159329 -0.094742 0.488436 
0.422287 0.488436 -0.045516 

0.113380 -0.093796 0.359020 
-0.093796 0.151467 0.235073 
0.359020 0.235073 0.234550 

-0.211368 0.212725 0.237206 
0.212725 -0.262375 0.168197 
0.237206 0.168197 -0.560382 

-0.522496 0.352774 -0.029130 
0.352774 -0.201822 -0.015354 
-0.029130 -0.015354 -0.755836 

0.563781 0.410589 0.360471 
0.410589 2.365709 0.738492 
0.360471 0.738492 0.869351 

-0.035469 0.138905 0.351278 
0.138905 1.192833 0.304930 
0.351278 0.304930 -0.442123 

0.765519 0.255125 0.332144 
0.255125 1.961511 0.710427 
0.332144 0.710427 0.590106 

0.436848 0.353191 0.364084 
0.353191 1.015663 0.253013 
0.364084 0.253013 -0.226890 

0.272636 0.457212 0.677385 
0.457212 0.629647 0.431550 
0.677385 0.431550 -0.265778 

0.259878 0.385744 -0.351299 
0.385744 1.722074 0.575761 
-0.351299 0.575761 0.288886 

0.731458 0.442987 0.977540 
0.442987 2.135324 0.480920 
0.977540 0.480920 0.534770 

0.318160 0.420254 0.555694 
0.420254 0.626858 0.384837 
0.555694 0.384837 -0.186572 

0.778227 0.477657 0.109271 
0.477657 1.817679 0.640019 
0.109271 0.640019 0.772086 

0.468355 0.313801 0.340206 
0.313801 1.340581 0.249121 
0.340206 0.249121 0.128854 

0.448925 0.384005 0.594574 
0.384005 0.783770 0.397693 
0.594574 0.397693 0.054240 

-0.032984 0.313952 -0.148018 
0.313952 0.586757 0.245824 
-0.148018 0.245824 -0.447556 

0.791406 0.324958 0.357177 
0.324958 2.361222 0.658586 
0.357177 0.658586 0.856260 

0.298220 0.180256 0.424762 
0.180256 1.243961 0.511757 
0.424762 0.511757 0.010640 

0.513748 0.293472 -0.065028 
0.293472 1.717579 0.558920 
-0.065028 0.558920 0.386764 

0.364135 0.436490 0.921977 
0.436490 1.142805 0.330101 
0.921977 0.330101 -0.023243 

0.097673 0.453650 0.359075 
0.453650 0.639340 0.400040 
0.359075 0.400040 -0.212516 

0.873189 0.439766 0.222422 
0.439766 2.416974 0.632774 
0.222422 0.632774 1.101916 

0.047931 0.202439 0.787140 
0.202439 0.498373 0.209880 
0.787140 0.209880 -0.189758 

-0.159201 0.234337 -0.333518 
0.234337 0.108608 0.011172 
-0.333518 0.011172 -0.375310 

0.338472 0.252350 0.992408 
0.252350 0.448845 0.005606 
0.992408 0.005606 0.085737 

0.127815 0.069398 -0.189949 
0.069398 -0.063024 0.183470 
-0.189949 0.183470 0.217796 

0.091951 0.049282 0.098727 
0.049282 0.020874 -0.191915 
0.098727 -0.191915 0.009222 

0.133855 0.368848 -0.047156 
0.368848 -0.322450 -0.100194 
-0.047156 -0.100194 -0.497916 

0.140091 1.114115 0.657021 
1.114115 0.470692 0.710289 
0.657021 0.710289 0.361139 

0.693457 0.543866 -0.322493 
0.543866 3.359474 -0.574342 
-0.322493 -0.574342 -0.344431 

1.536467 1.122752 -0.530200 
1.122752 4.252138 0.841355 
-0.530200 0.841355 1.211234 

0.780645 1.058724 -0.607126 
1.058724 2.612238 -0.443842 
-0.607126 -0.443842 -0.441502 

1.259968 1.568975 -0.645471 
1.568975 2.482338 0.470979 
-0.645471 0.470979 0.535873 

0.977518 1.801915 -1.216724 
1.801915 3.173272 0.142266 
-1.216724 0.142266 0.615763 

0.490856 1.744541 1.100504 
1.744541 1.895956 -0.236400 
1.100504 -0.236400 -0.682727 

0.041814 1.789683 -1.941500 
1.789683 1.652754 -0.029277 
-1.941500 -0.029277 -0.632649 

0.648485 2.731295 -1.152366 
2.731295 2.651307 0.089627 
-1.152366 0.089627 0.267341 

0.358186 1.619530 0.061065 
1.619530 2.667957 -0.733517 
0.061065 -0.733517 -0.541598 

0.637681 1.560008 -0.527147 
1.560008 1.989169 0.230021 
-0.527147 0.230021 0.059569 

1.113127 1.600561 -1.059243 
1.600561 3.024618 -0.042340 
-1.059243 -0.042340 0.579613 

1.262359 1.239639 0.652787 
1.239639 3.815581 0.558211 
0.652787 0.558211 1.175312 

0.101804 0.725284 -0.547276 
0.725284 1.527638 -0.626747 
-0.547276 -0.626747 -1.152717 

1.244280 1.159474 -0.721099 
1.159474 3.375310 0.102307 
-0.721099 0.102307 0.378502 

0.633654 0.971078 0.322483 
0.971078 1.480001 -0.227043 
0.322483 -0.227043 -0.724852 

0.044057 1.767014 -1.892171 
1.767014 0.766290 0.207905 
-1.892171 0.207905 -0.480322 

0.292499 2.430601 -0.656673 
2.430601 2.495138 0.104452 
-0.656673 0.104452 0.170207 

0.088523 1.492077 -0.361905 
1.492077 2.130353 -0.853762 
-0.361905 -0.853762 -1.001410 

0.805717 1.779715 -1.660279 
1.779715 2.467280 0.298523 
-1.660279 0.298523 0.667394 

0.877681 1.371372 0.704750 
1.371372 1.994372 0.498912 
0.704750 0.498912 0.964097 

0.021624 1.113806 -2.314448 
1.113806 2.140750 0.271982 
-2.314448 0.271982 0.841327 

0.089277 0.619010 0.425483 
0.619010 0.402226 -0.549315 
0.425483 -0.549315 -0.212720 

0.293033 0.037032 -0.141865 
0.037032 0.323584 0.192899 
-0.141865 0.192899 0.535039 

0.743168 0.507777 0.199346 
0.507777 0.238656 0.983926 
0.199346 0.983926 -0.032826 

1.538864 1.980284 0.327850 
1.980284 0.400158 -1.788093 
0.327850 -1.788093 0.388678 

1.024234 0.220266 2.339955 
0.220266 3.840783 9.782406 
2.339955 9.782406 -1.564225 

0.689463 0.211880 4.031016 
0.211880 0.244731 2.021189 
4.031016 2.021189 -2.446614 

1.558013 0.771848 4.125557 
0.771848 2.666840 7.717226 
4.125557 7.717226 -0.189971 

0.729102 0.344550 4.274351 
0.344550 2.754749 2.639998 
4.274351 2.639998 -0.704109 

2.514929 1.047262 7.785301 
1.047262 3.226577 2.461523 
7.785301 2.461523 0.959738 

1.889127 0.954925 -1.726921 
0.954925 1.489017 6.789535 
-1.726921 6.789535 0.142334 

1.320996 2.048304 10.129866 
2.048304 -0.439105 7.532525 
10.129866 7.532525 -3.167424 

0.498882 1.254870 8.237004 
1.254870 2.912266 1.785776 
8.237004 1.785776 1.352634 

0.375989 0.927417 2.119413 
0.927417 2.650578 7.881926 
2.119413 7.881926 0.244204 

-1.025911 1.372693 3.828599 
1.372693 0.031256 3.779005 
3.828599 3.779005 -1.811622 

-0.611135 1.002427 5.906261 
1.002427 2.885773 2.782336 
5.906261 2.782336 -0.162149 

0.939064 0.568171 -0.142784 
0.568171 1.745868 1.137877 
-0.142784 1.137877 -0.919389 

0.025250 1.836621 3.629992 
1.836621 0.740235 9.618816 
3.629992 9.618816 -1.173988 

0.428071 0.621737 4.538202 
0.621737 1.107373 4.086055 
4.538202 4.086055 -0.925458 

2.373962 -0.146593 0.313720 
-0.146593 1.357034 6.971650 
0.313720 6.971650 -0.389902 

1.900762 0.430763 9.856349 
0.430763 -0.644124 4.061266 
9.856349 4.061266 -1.608247 

0.633922 0.546714 6.716459 
0.546714 0.129968 2.073040 
6.716459 2.073040 -0.207973 

-1.004573 1.162951 3.478406 
1.162951 1.637119 10.114830 
3.478406 10.114830 -0.998404 

0.984377 0.243081 7.844517 
0.243081 3.006680 0.582545 
7.844517 0.582545 0.596853 

0.156838 0.037382 -0.723996 
0.037382 3.332377 -0.449438 
-0.723996 -0.449438 -0.287139 

0.014479 -0.557725 10.753122 
-0.557725 1.413646 0.530277 
10.753122 0.530277 -1.610540 

-0.268671 -0.258699 -0.680591 
-0.258699 1.294056 0.259493 
-0.680591 0.259493 2.651002 

-2.307856 0.032729 0.768667 
0.032729 -1.038154 -0.182522 
0.768667 -0.182522 -1.647741 

-0.009932 0.584701 0.105740 
0.584701 -0.123728 0.385665 
0.105740 0.385665 -0.531905 

1.072703 2.995029 0.401343 
2.995029 0.749442 -0.529648 
0.401343 -0.529648 0.449792 

2.399280 0.423793 -0.675652 
0.423793 1.647808 6.306509 
-0.675652 6.306509 0.808477 

0.406823 1.258022 -0.118796 
1.258022 -0.715777 9.681758 
-0.118796 9.681758 -0.934998 

-0.406530 0.890790 5.551701 
0.890790 -0.379684 2.360457 
5.551701 2.360457 -0.489869 

1.806347 1.174372 0.643590 
1.174372 3.261369 3.223476 
0.643590 3.223476 1.780072 

1.411556 0.120879 -1.770603 
0.120879 2.341456 6.178280 
-1.770603 6.178280 -2.030414 

3.850198 -0.220310 11.228130 
-0.220310 0.278851 0.447869 
11.228130 0.447869 0.285388 

1.157336 -0.097917 3.091266 
-0.097917 1.438308 0.167997 
3.091266 0.167997 2.440425 

0.664414 0.166541 7.290262 
0.166541 1.731805 4.634636 
7.290262 4.634636 -1.297093 

0.417554 -0.504728 2.730714 
-0.504728 1.946525 3.145301 
2.730714 3.145301 1.406249 

-0.189628 0.523772 9.282953 
0.523772 1.459022 0.819621 
9.282953 0.819621 0.465561 

0.005803 -0.121624 1.541140 
-0.121624 2.173760 7.280247 
1.541140 7.280247 2.172746 

-0.670602 1.259687 -1.032300 
1.259687 -0.029888 11.229300 
-1.032300 11.229300 -1.050330 

0.330754 1.295509 5.717343 
1.295509 -0.827884 -4.235716 
5.717343 -4.235716 0.373433 

-0.627363 0.027384 0.142510 
0.027384 -0.054810 10.054688 
0.142510 10.054688 1.018773 

1.149700 0.480598 2.058248 
0.480598 2.172278 0.433805 
2.058248 0.433805 2.040682 

3.255919 1.198176 0.025173 
1.198176 2.637633 -1.329133 
0.025173 -1.329133 2.321965 

2.175742 0.910522 0.944255 
0.910522 1.155524 6.246417 
0.944255 6.246417 0.217303 

1.568024 -0.582598 8.800970 
-0.582598 1.557169 -1.735845 
8.800970 -1.735845 0.255009 

-1.137353 -0.249593 4.878533 
-0.249593 2.407660 6.093066 
4.878533 6.093066 0.554412 

-1.719271 0.981337 1.557438 
0.981337 1.196243 4.805577 
1.557438 4.805577 -0.389052 

-2.017597 -0.248515 -0.366948 
-0.248515 2.175259 6.805471 
-0.366948 6.805471 -0.480431 

-0.475615 0.030771 0.563578 
0.030771 0.515984 -1.455523 
0.563578 -1.455523 0.209665 

-0.492174 -0.345005 0.064994 
-0.345005 0.196336 0.667865 
0.064994 0.667865 0.440575 

0.978074 0.751631 0.364678 
0.751631 0.293429 0.904469 
0.364678 0.904469 0.156683 

2.823565 2.413980 -0.049125 
2.413980 0.237506 -1.515731 
-0.049125 -1.515731 0.402947 

1.848440 0.411042 3.955945 
0.411042 1.104808 9.994350 
3.955945 9.994350 -1.621384 

3.134066 0.101851 9.479338 
0.101851 1.056180 -2.751581 
9.479338 -2.751581 3.279264 

0.955175 1.262667 1.178961 
1.262667 0.221600 7.626819 
1.178961 7.626819 0.793551 

-1.645361 1.374469 4.653211 
1.374469 -1.989360 7.583181 
4.653211 7.583181 -4.780266 

0.353469 0.558013 11.126470 
0.558013 0.434861 7.596249 
11.126470 7.596249 0.012504 

0.966406 0.377628 -2.102238 
0.377628 1.364775 4.386047 
-2.102238 4.386047 2.089134 

1.912024 2.205559 3.682859 
2.205559 1.873200 1.591970 
3.682859 1.591970 -1.026609 

-0.725951 -0.061862 3.703603 
-0.061862 1.201098 9.227026 
3.703603 9.227026 -2.258445 

-0.601173 -0.331650 9.750815 
-0.331650 1.686553 3.224322 
9.750815 3.224322 -0.527516 

0.626876 0.312734 -0.651259 
0.312734 2.230489 2.433666 
-0.651259 2.433666 1.388668 

2.422131 -0.256286 0.888059 
-0.256286 0.158582 3.364600 
0.888059 3.364600 -1.539663 

1.877895 -1.416941 10.482462 
-1.416941 -0.309450 -2.505072 
10.482462 -2.505072 -0.227085 

1.761667 0.353491 6.860600 
0.353491 2.927231 7.600982 
6.860600 7.600982 2.396114 

0.652596 -0.174369 1.667330 
-0.174369 -1.008861 -0.155615 
1.667330 -0.155615 1.012038 

-0.906438 0.221926 9.498793 
0.221926 -0.720651 2.514700 
9.498793 2.514700 -2.917258 

1.595012 1.120151 -0.643290 
1.120151 3.360104 3.278589 
-0.643290 3.278589 1.836183 

1.408492 1.348744 4.095835 
1.348744 1.747780 -3.133281 
4.095835 -3.133281 -1.295189 

-0.602297 1.819998 5.294689 
1.819998 1.497680 8.603200 
5.294689 8.603200 -1.351023 

1.375008 0.178006 -3.010570 
0.178006 1.365400 4.576031 
-3.010570 4.576031 0.099070 

-0.644231 0.010304 8.694126 
0.010304 -1.324972 1.636334 
8.694126 1.636334 -4.036418 

-1.130057 -1.889876 10.830000 
-1.889876 1.984008 4.605890 
10.830000 4.605890 1.463378 

-1.000814 -0.870865 -0.489255 
-0.870865 0.556445 -0.108144 
-0.489255 -0.108144 1.757443 

-2.427157 -0.343591 0.714014 
-0.343591 -1.098275 0.110668 
0.714014 0.110668 -1.260979 

1.336363 0.558793 0.358398 
0.558793 0.367583 0.417955 
0.358398 0.417955 0.221331 

2.298766 2.237469 -0.070712 
2.237469 -0.063048 -0.613025 
-0.070712 -0.613025 -0.220526 

1.091260 0.120318 3.721495 
0.120318 0.715502 6.387776 
3.721495 6.387776 0.609421 

1.984034 1.113208 -1.178083 
1.113208 2.991989 0.466434 
-1.178083 0.466434 -0.219091 

2.390914 1.839080 4.718062 
1.839080 -1.056668 1.719304 
4.718062 1.719304 -0.250405 

0.357336 1.298423 8.788786 
1.298423 -1.325679 7.382288 
8.788786 7.382288 0.643203 

-0.467801 -0.858751 5.246755 
-0.858751 -0.727880 8.943457 
5.246755 8.943457 2.234964 

0.590715 0.266390 1.545581 
0.266390 0.559748 -1.215767 
1.545581 -1.215767 0.110585 

0.138163 1.691899 8.448085 
1.691899 0.574681 4.222264 
8.448085 4.222264 -2.151789 

-0.321883 1.016505 2.163352 
1.016505 0.720151 7.020246 
2.163352 7.020246 2.815038 

-0.828089 -0.190199 0.389047 
-0.190199 1.705941 7.470626 
0.389047 7.470626 -1.728731 

0.767828 1.479306 4.053863 
1.479306 0.144536 7.202989 
4.053863 7.202989 0.336947 

-0.149945 1.185099 1.729430 
1.185099 0.929397 8.947243 
1.729430 8.947243 0.648066 

-0.260524 1.035085 0.160074 
1.035085 2.109014 5.186227 
0.160074 5.186227 -1.131862 

1.786670 -0.156482 2.340866 
-0.156482 2.703016 -0.383457 
2.340866 -0.383457 1.312052 

2.149150 1.719964 -0.350010 
1.719964 1.298692 -0.609164 
-0.350010 -0.609164 0.404210 

0.295541 0.564669 6.950240 
0.564669 0.905064 10.690024 
6.950240 10.690024 -1.482911 

0.740745 -0.080402 7.239226 
-0.080402 1.206022 2.034076 
7.239226 2.034076 1.622709 

1.585153 0.801569 0.598977 
0.801569 3.638931 8.791160 
0.598977 8.791160 -0.686165 

1.993779 1.047274 7.648068 
1.047274 -0.378524 7.377908 
7.648068 7.377908 0.155819 

-1.266286 0.473433 10.352818 
0.473433 -1.130187 8.000250 
10.352818 8.000250 -1.139049 

-2.788188 0.625234 3.592864 
0.625234 -0.609872 6.498347 
3.592864 6.498347 1.281174 

-3.345680 -2.496936 -3.231597 
-2.496936 0.159737 9.387177 
-3.231597 9.387177 -1.799501 

-0.467589 -0.090829 0.771879 
-0.090829 -0.268086 -1.668950 
0.771879 -1.668950 -0.398377 

0.207660 -0.654483 0.070686 
-0.654483 0.520380 0.832957 
0.070686 0.832957 1.061312 

1.869767 0.461872 0.549145 
0.461872 0.901758 0.684478 
0.549145 0.684478 0.757341 

4.115545 1.677838 -0.397077 
1.677838 1.268834 -1.137712 
-0.397077 -1.137712 0.498762 

2.475376 0.111044 7.278364 
0.111044 -0.730752 5.998939 
7.278364 5.998939 -1.831804 

0.962419 -0.834454 8.070324 
-0.834454 -0.427733 6.541753 
8.070324 6.541753 -2.483592 

0.792060 1.002609 7.531104 
1.002609 -0.032728 1.003102 
7.531104 1.003102 0.541478 

-0.289663 0.546207 3.769130 
0.546207 1.150232 0.626556 
3.769130 0.626556 1.377171 

1.442212 0.461061 4.072803 
0.461061 2.222834 1.666162 
4.072803 1.666162 4.027796 

1.160627 0.595731 -1.197152 
0.595731 1.745135 1.936499 
-1.197152 1.936499 -0.759226 

0.312071 0.926530 9.159909 
0.926530 -0.388948 9.990275 
9.159909 9.990275 -2.588637 

0.723981 0.524292 5.634083 
0.524292 -0.236826 1.229267 
5.634083 1.229267 2.647243 

0.685152 -0.386367 3.259996 
-0.386367 0.473899 10.065736 
3.259996 10.065736 -0.598773 

1.900547 -0.146689 4.370305 
-0.146689 0.561854 -1.303128 
4.370305 -1.303128 -0.280183 

2.457612 0.507871 9.672166 
0.507871 1.551914 1.428597 
9.672166 1.428597 1.851135 

0.599128 -0.304268 4.039772 
-0.304268 0.470403 2.673955 
4.039772 2.673955 0.287837 

-0.935279 -0.014317 6.221994 
-0.014317 1.418621 9.739289 
6.221994 9.739289 -3.550962 

0.652909 0.238736 9.268827 
0.238736 2.309083 -0.074857 
9.268827 -0.074857 0.776464 

2.111842 0.206680 0.057837 
0.206680 3.223371 0.818002 
0.057837 0.818002 4.233512 

1.144780 0.276801 0.878798 
0.276801 0.374463 2.604528 
0.878798 2.604528 -1.598320 

1.497442 -0.171123 5.267168 
-0.171123 0.758778 4.563269 
5.267168 4.563269 -0.226423 

0.625442 -0.041681 6.090505 
-0.041681 1.757149 -2.000251 
6.090505 -2.000251 0.825703 

0.897431 0.387834 2.561748 
0.387834 1.715184 5.853144 
2.561748 5.853144 3.654061 

-0.430492 -0.116168 0.716858 
-0.116168 -1.290321 -0.551156 
0.716858 -0.551156 -0.434182 

-0.365137 -1.203321 11.063579 
-1.203321 -0.153633 10.255178 
11.063579 10.255178 0.352314 

-1.225526 -0.867008 -0.354495 
-0.867008 0.368954 -1.593330 
-0.354495 -1.593330 1.707906 

-2.410749 -0.513752 0.675355 
-0.513752 -0.812941 0.853674 
0.675355 0.853674 -0.987901 

-0.239095 0.311492 -0.001573 
0.311492 -0.204775 0.177779 
-0.001573 0.177779 -0.943376 

2.168710 2.249976 0.881792 
2.249976 1.050686 -0.117755 
0.881792 -0.117755 1.122549 

3.672989 1.437282 -2.923275 
1.437282 0.859226 3.899183 
-2.923275 3.899183 1.555884 

2.519028 -0.409287 3.266304 
-0.409287 -0.882076 8.684609 
3.266304 8.684609 -0.756606 

0.950765 0.323059 6.883337 
0.323059 -0.108898 -1.097982 
6.883337 -1.097982 -0.416631 

-0.508385 0.308650 6.246051 
0.308650 2.292264 5.663628 
6.246051 5.663628 -1.287653 

-1.376796 0.091093 6.494388 
0.091093 1.209738 -0.186252 
6.494388 -0.186252 -1.516833 

0.246769 0.954830 3.917057 
0.954830 3.039638 4.332956 
3.917057 4.332956 1.332895 

2.077609 0.706574 0.027789 
0.706574 1.487629 4.419939 
0.027789 4.419939 3.512298 

0.990740 1.071903 0.840441 
1.071903 -0.904497 1.260809 
0.840441 1.260809 -1.822272 

0.838125 0.781349 3.947425 
0.781349 -1.401154 9.031095 
3.947425 9.031095 0.307612 

-0.417507 1.079993 4.448748 
1.079993 1.252847 6.458775 
4.448748 6.458775 -0.948182 

-0.663013 0.526082 2.106631 
0.526082 2.166059 3.536531 
2.106631 3.536531 -1.322890 

0.286537 0.844845 5.412537 
0.844845 -0.026454 9.351335 
5.412537 9.351335 -0.048030 

-0.858097 -0.581519 2.461587 
-0.581519 -0.120364 5.542066 
2.461587 5.542066 0.658162 

-2.179546 0.732611 3.990185 
0.732611 -0.075174 3.964371 
3.990185 3.964371 -1.698457 

-0.296343 0.755332 1.290560 
0.755332 1.375707 5.228269 
1.290560 5.228269 -1.072055 

2.629021 1.470987 3.054029 
1.470987 1.699653 6.659267 
3.054029 6.659267 1.450837 

0.206734 1.020417 0.042787 
1.020417 -0.822184 6.889214 
0.042787 6.889214 -1.491032 

-2.636323 1.806015 4.957327 
1.806015 -1.133140 8.253197 
4.957327 8.253197 -5.091127 

-0.547706 1.003493 4.697856 
1.003493 2.231331 0.320607 
4.697856 0.320607 1.102030 

-1.269015 1.507213 -0.429394 
1.507213 0.500812 2.671404 
-0.429394 2.671404 -0.853108 

-0.901736 -1.257542 1.690601 
-1.257542 0.383449 3.012039 
1.690601 3.012039 0.271027 

-0.963059 -0.678978 0.539562 
-0.678978 -0.492349 0.198843 
0.539562 0.198843 0.185653 

-0.884217 -0.620656 0.217498 
-0.620656 -0.295392 0.085824 
0.217498 0.085824 0.274943 

2.180583 0.540388 0.801735 
0.540388 0.902548 0.239139 
0.801735 0.239139 1.098548 

1.665927 1.164474 -1.174104 
1.164474 0.040214 -0.097922 
-1.174104 -0.097922 -1.324938 

4.006929 1.025646 10.517474 
1.025646 0.578319 2.186716 
10.517474 2.186716 0.860655 

3.120705 0.100599 -1.416261 
0.100599 2.220093 1.332997 
-1.416261 1.332997 3.371059 

0.147915 1.037467 9.185631 
1.037467 -0.557210 -0.214915 
9.185631 -0.214915 -3.542642 

0.612666 0.589049 6.482810 
0.589049 2.711180 8.416925 
6.482810 8.416925 2.116934 

-1.915403 0.598697 -0.514235 
0.598697 -1.046762 8.239372 
-0.514235 8.239372 -2.479530 

-0.694229 0.948360 7.930667 
0.948360 0.529961 6.934659 
7.930667 6.934659 -1.962102 

2.466894 0.559975 0.887307 
0.559975 3.311523 -1.526220 
0.887307 -1.526220 1.958327 

2.013812 0.967027 5.980551 
0.967027 -0.214497 8.739491 
5.980551 8.739491 -1.577631 

2.605530 0.131412 7.149618 
0.131412 0.068549 0.147562 
7.149618 0.147562 2.414426 

-0.742762 -0.837075 5.688254 
-0.837075 0.656635 3.012215 
5.688254 3.012215 -1.327025 

1.260452 -0.286643 11.515214 
-0.286643 2.481957 9.700151 
11.515214 9.700151 1.039110 

0.666293 0.489721 -2.633238 
0.489721 -0.758649 -0.559135 
-2.633238 -0.559135 3.171885 

-0.116840 0.876953 6.963008 
0.876953 -0.674723 5.377264 
6.963008 5.377264 -2.584505 

-1.467287 1.323891 3.681655 
1.323891 -2.072256 5.734942 
3.681655 5.734942 0.536579 

0.516413 0.763529 2.461729 
0.763529 1.670256 7.075089 
2.461729 7.075089 1.196542 

3.740214 0.184631 1.024503 
0.184631 2.037968 0.144509 
1.024503 0.144509 0.697937 

4.063747 1.125927 8.454251 
1.125927 -1.111769 4.763538 
8.454251 4.763538 -0.144404 

0.623333 0.520211 9.944552 
0.520211 -1.720808 8.309239 
9.944552 8.309239 0.990917 

-2.847422 -0.286126 7.611271 
-0.286126 -1.066754 8.446482 
7.611271 8.446482 -3.668791 

-1.614478 1.248732 7.135364 
1.248732 -0.237433 4.983855 
7.135364 4.983855 0.996858 

-2.418900 -1.289123 3.249539 
-1.289123 1.781555 8.030108 
3.249539 8.030108 -0.001920 

-0.507331 -0.355158 0.045262 
-0.355158 0.120204 -1.353632 
0.045262 -1.353632 0.627821 

-0.919532 -0.449765 0.424364 
-0.449765 -0.607345 0.772786 
0.424364 0.772786 -0.042169 

1.144692 0.242446 0.288551 
0.242446 0.005414 0.265524 
0.288551 0.265524 -0.363747 

3.847667 1.305855 0.672389 
1.305855 1.228676 -0.232790 
0.672389 -0.232790 0.880733 

0.127610 0.474153 2.290662 
0.474153 0.614527 3.206138 
2.290662 3.206138 -1.840337 

0.724001 0.734019 9.074357 
0.734019 1.630483 1.750340 
9.074357 1.750340 0.410649 

1.402123 1.938383 -2.809510 
1.938383 2.935212 4.417706 
-2.809510 4.417706 2.377171 

1.812359 0.737971 4.108553 
0.737971 -0.097408 6.103556 
4.108553 6.103556 -1.710071 

0.688406 0.958232 4.142610 
0.958232 -2.287579 2.299895 
4.142610 2.299895 0.418465 

-0.819757 1.308605 10.724691 
1.308605 -0.117445 9.689682 
10.724691 9.689682 0.062569 

-2.219991 -0.771135 -1.843548 
-0.771135 0.710418 7.474028 
-1.843548 7.474028 -1.725090 

0.890049 0.878129 6.500606 
0.878129 -0.367463 1.939694 
6.500606 1.939694 0.991993 

-2.168868 2.068753 -0.344710 
2.068753 -0.676748 0.527395 
-0.344710 0.527395 -0.783435 

0.549195 1.535278 2.226007 
1.535278 2.679764 7.681974 
2.226007 7.681974 -0.002071 

0.918213 -1.711506 -4.233717 
-1.711506 1.168851 7.656179 
-4.233717 7.656179 -0.628006 

1.515415 1.102806 11.034096 
1.102806 -1.760735 -1.415596 
11.034096 -1.415596 -1.318277 

0.913454 -0.692228 0.684323 
-0.692228 0.084641 9.099201 
0.684323 9.099201 0.697864 

-0.364718 1.035273 6.302475 
1.035273 -2.947791 -0.627642 
6.302475 -0.627642 -1.347019 

-0.708056 0.989772 8.278372 
0.989772 -0.739533 5.122134 
8.278372 5.122134 0.835353 

0.076035 -0.366003 -2.326964 
-0.366003 1.659263 8.000252 
-2.326964 8.000252 -0.882308 

1.673989 0.529970 8.540070 
0.529970 0.736678 0.792460 
8.540070 0.792460 -0.505324 

2.266173 0.345255 2.439524 
0.345255 0.995896 -1.734161 
2.439524 -1.734161 3.410927 

0.251078 -0.555279 3.629345 
-0.555279 -0.890840 11.031154 
3.629345 11.031154 0.301474 

-1.643880 -0.752852 7.280817 
-0.752852 -0.195954 -3.094962 
7.280817 -3.094962 -0.923034 

-3.074037 -2.129991 4.773088 
-2.129991 0.015570 8.286938 
4.773088 8.286938 0.202854 

-1.045679 -0.567358 0.058597 
-0.567358 -0.607202 -0.965849 
0.058597 -0.965849 0.438014 

-1.099343 -0.438494 0.446611 
-0.438494 -0.384359 0.461345 
0.446611 0.461345 -0.017466 

2.470359 0.316682 0.851904 
0.316682 0.875004 0.252717 
0.851904 0.252717 0.994520 

1.972819 0.927172 -0.820134 
0.927172 0.671973 -0.280893 
-0.820134 -0.280893 -1.115998 

2.901184 0.585477 10.676278 
0.585477 2.136090 2.287852 
10.676278 2.287852 -0.109323 

1.593550 -0.422462 -0.529294 
-0.422462 2.627816 5.075541 
-0.529294 5.075541 1.536218 

2.526224 0.197595 8.109079 
0.197595 -0.597500 -1.577757 
8.109079 -1.577757 -2.379372 

0.882785 -0.356575 6.895370 
-0.356575 1.541595 11.049097 
6.895370 11.049097 0.665737 

2.090687 -0.238375 8.097372 
-0.238375 2.167763 -0.505960 
8.097372 -0.505960 2.436471 

1.391900 -1.442169 1.518450 
-1.442169 0.440795 3.870646 
1.518450 3.870646 1.175449 

1.066868 -0.593968 11.570908 
-0.593968 -2.281328 9.524775 
11.570908 9.524775 -0.513627 

-1.702511 0.068804 2.513654 
0.068804 -0.651156 0.528571 
2.513654 0.528571 -0.018415 

1.071269 2.862553 6.592748 
2.862553 0.406983 4.195936 
6.592748 4.195936 1.047086 

-1.305243 0.261938 1.264955 
0.261938 -1.092996 8.341905 
1.264955 8.341905 -1.504357 

-0.744415 0.165635 9.119164 
0.165635 -1.468933 8.747519 
9.119164 8.747519 -1.429506 

1.544800 2.447885 -2.726743 
2.447885 1.469916 -1.275555 
-2.726743 -1.275555 3.104849 

0.503918 0.909495 0.487235 
0.909495 -0.993336 6.273360 
0.487235 6.273360 -1.266829 

2.424795 1.727905 10.168903 
1.727905 1.591689 -1.894285 
10.168903 -1.894285 1.489373 

0.425706 0.561357 -2.600240 
0.561357 0.566042 8.595610 
-2.600240 8.595610 1.841163 

-0.633342 0.396828 8.942664 
0.396828 -2.714731 4.157411 
8.942664 4.157411 -2.485364 

-1.888518 1.053934 1.932614 
1.053934 1.756769 3.551962 
1.932614 3.551962 1.221726 

1.095859 1.916841 -0.227251 
1.916841 2.974509 3.624585 
-0.227251 3.624585 0.810656 

1.839811 0.971368 -0.662708 
0.971368 2.040510 -2.243608 
-0.662708 -2.243608 0.468741 

-1.389673 1.338114 9.376377 
1.338114 0.245538 6.879100 
9.376377 6.879100 -3.521112 

-2.201526 -1.276786 -0.095791 
-1.276786 -1.177100 9.870383 
-0.095791 9.870383 2.506713 

-1.211901 0.051631 0.672123 
0.051631 -0.959948 -1.978898 
0.672123 -1.978898 -0.895441 

-0.052575 -0.451316 0.094301 
-0.451316 0.701337 0.921035 
0.094301 0.921035 1.275264 

0.656626 0.318055 0.137741 
0.318055 0.088005 0.511954 
0.137741 0.511954 -0.631262 

1.469460 2.213543 0.877241 
2.213543 0.567505 -0.972013 
0.877241 -0.972013 0.284964 

-0.055036 0.853039 0.652927 
0.853039 1.684445 7.115714 
0.652927 7.115714 -1.316868 

1.198451 0.268020 1.982713 
0.268020 -0.272791 2.161581 
1.982713 2.161581 -0.921450 

-0.548366 0.396379 3.798395 
0.396379 0.264557 10.413194 
3.798395 10.413194 -1.941953 

-1.526303 -0.935208 4.429484 
-0.935208 -0.809599 1.405660 
4.429484 1.405660 0.567494 

-0.129483 0.807374 -0.082830 
0.807374 2.472295 0.665393 
-0.082830 0.665393 0.522478 

2.711573 0.048398 -1.373617 
0.048398 0.993551 4.473123 
-1.373617 4.473123 -0.629588 

1.880898 -0.888616 1.965652 
-0.888616 -0.593173 0.181783 
1.965652 0.181783 0.235638 

0.436470 -0.403916 9.324180 
-0.403916 -0.337570 3.959504 
9.324180 3.959504 -0.255985 

1.790671 0.668517 1.623127 
0.668517 1.515930 -1.762587 
1.623127 -1.762587 1.989219 

3.231475 0.516112 6.230370 
0.516112 0.380937 7.966775 
6.230370 7.966775 1.237162 

0.856777 -1.815573 5.781499 
-1.815573 -0.782337 7.247730 
5.781499 7.247730 0.814530 

1.906264 -1.278040 10.917423 
-1.278040 0.283085 -0.465026 
10.917423 -0.465026 -0.674428 

0.600246 -0.058261 6.927715 
-0.058261 0.397645 1.766388 
6.927715 1.766388 1.710874 

0.100670 0.196516 3.235178 
0.196516 2.200404 0.357831 
3.235178 0.357831 -1.431992 

3.623526 -0.357890 7.399790 
-0.357890 1.807870 -1.109231 
7.399790 -1.109231 1.475289 

1.472996 -0.340143 6.384320 
-0.340143 -0.537588 6.764344 
6.384320 6.764344 0.552751 

-0.483030 -0.942024 9.034876 
-0.942024 -2.170240 2.878757 
9.034876 2.878757 -3.343739 

-0.296055 -0.068276 11.044913 
-0.068276 0.876924 4.399285 
11.044913 4.399285 -0.168179 

0.350125 1.087041 3.824733 
1.087041 2.856884 5.514082 
3.824733 5.514082 0.751497 

-0.576389 -0.183328 0.025422 
-0.183328 -0.552747 8.665418 
0.025422 8.665418 -1.329444 

-0.279095 -1.571465 9.656758 
-1.571465 -0.400719 -1.656616 
9.656758 -1.656616 0.903810 

-1.342849 -0.363763 0.084532 
-0.363763 0.610976 0.630340 
0.084532 0.630340 1.716913 

-2.498840 -0.260128 0.633583 
-0.260128 -0.810441 -0.104422 
0.633583 -0.104422 -0.629950 

2.036384 0.575319 0.792162 
0.575319 1.060580 0.578077 
0.792162 0.578077 0.963415 

1.441715 1.979375 -1.075625 
1.979375 -0.174412 -1.133201 
-1.075625 -1.133201 -1.340541 

0.544402 2.045377 9.827549 
2.045377 -0.788968 7.987682 
9.827549 7.987682 -0.695980 

-0.237379 0.185645 -0.644131 
0.185645 0.996099 7.455712 
-0.644131 7.455712 1.888214 

1.587311 0.693264 4.387048 
0.693264 0.760371 0.518284 
4.387048 0.518284 2.358135 

0.436522 1.035980 -0.358398 
1.035980 -0.249082 7.724319 
-0.358398 7.724319 0.229039 

-0.787490 1.227214 2.591236 
1.227214 -0.747193 6.824417 
2.591236 6.824417 -3.763251 

0.394356 1.104707 6.455143 
1.104707 0.637433 9.528030 
6.455143 9.528030 1.156909 

0.308475 0.224817 0.920277 
0.224817 2.145933 0.477199 
0.920277 0.477199 -0.108201 

0.937886 0.927408 4.049445 
0.927408 0.200560 1.442007 
4.049445 1.442007 0.730360 

-0.154871 1.369867 -1.551736 
1.369867 0.080929 4.212407 
-1.551736 4.212407 -1.435122 

0.397214 -0.031330 5.470850 
-0.031330 0.015540 0.174545 
5.470850 0.174545 -1.518687 

1.735603 -0.826436 4.157873 
-0.826436 1.939410 -0.112556 
4.157873 -0.112556 2.919360 

1.789371 -0.100848 -2.897837 
-0.100848 1.714679 2.459322 
-2.897837 2.459322 -0.226866 

0.987124 0.993315 7.200467 
0.993315 0.043332 0.871138 
7.200467 0.871138 -1.607176 

-1.619331 0.572383 6.976173 
0.572383 1.423707 10.157525 
6.976173 10.157525 -0.588900 

-0.930868 -0.227784 1.290879 
-0.227784 0.619134 6.137228 
1.290879 6.137228 -0.641573 

-0.267900 1.523260 0.733524 
1.523260 -0.988466 -1.551811 
0.733524 -1.551811 0.345541 

1.171702 1.488607 1.298926 
1.488607 1.736296 9.407843 
1.298926 9.407843 2.440067 

-0.259408 0.267074 -2.938547 
0.267074 -0.721942 4.911100 
-2.938547 4.911100 -1.611056 

2.640179 0.312277 5.762667 
0.312277 1.581391 6.020049 
5.762667 6.020049 -0.568400 

-1.109415 -0.863265 5.374803 
-0.863265 -1.857794 4.473904 
5.374803 4.473904 -0.771931 

-3.199871 -1.385208 9.112832 
-1.385208 -0.911696 2.703431 
9.112832 2.703431 -2.651953 

-0.965978 -0.777657 -0.112976 
-0.777657 0.451769 0.199030 
-0.112976 0.199030 2.208274 

-2.441132 -0.416804 0.915559 
-0.416804 -1.182323 0.040951 
0.915559 0.040951 -0.998104 

1.724757 0.421227 0.644326 
0.421227 0.610921 0.386034 
0.644326 0.386034 0.507969 

2.440478 1.695595 -0.553563 
1.695595 0.232449 -0.494519 
-0.553563 -0.494519 -0.769610 

0.551542 1.202443 6.774904 
1.202443 -0.333943 4.407557 
6.774904 4.407557 0.500407 

0.106239 0.506174 2.630325 
0.506174 1.571953 -0.142065 
2.630325 -0.142065 2.779753 

1.616241 0.876730 -1.711120 
0.876730 2.864264 3.005915 
-1.711120 3.005915 -0.113200 

3.614651 1.382453 2.619870 
1.382453 0.738792 -1.221712 
2.619870 -1.221712 1.068542 

0.779505 0.374845 7.482705 
0.374845 -0.476213 8.993857 
7.482705 8.993857 -0.537965 

-0.986522 -0.441002 7.088530 
-0.441002 -0.767630 -2.262143 
7.088530 -2.262143 1.657130 

0.185423 0.178637 1.268123 
0.178637 1.770719 7.510883 
1.268123 7.510883 0.957604 

0.877907 1.994810 -1.385803 
1.994810 0.447229 1.423394 
-1.385803 1.423394 -1.070581 

1.005576 2.334634 10.640925 
2.334634 -0.117167 3.654292 
10.640925 3.654292 -0.301762 

0.085346 0.654406 2.355587 
0.654406 2.825679 10.205048 
2.355587 10.205048 2.624800 

0.671480 0.242366 -2.136208 
0.242366 1.842343 5.513369 
-2.136208 5.513369 -1.386548 

2.207204 0.530750 8.435715 
0.530750 2.005774 3.431693 
8.435715 3.431693 -0.161352 

0.071607 0.745908 0.913258 
0.745908 1.717882 -0.335912 
0.913258 -0.335912 -0.334441 

2.028499 1.019665 6.282373 
1.019665 1.294277 4.063774 
6.282373 4.063774 2.726723 

0.143465 -0.414915 -0.726826 
-0.414915 -0.128071 4.942457 
-0.726826 4.942457 0.349663 

0.883758 1.746537 10.024242 
1.746537 -0.822394 2.958601 
10.024242 2.958601 -1.248158 

1.541314 0.435612 1.338215 
0.435612 2.623889 -2.635697 
1.338215 -2.635697 1.894117 

3.087350 1.661973 9.361893 
1.661973 1.208294 6.435578 
9.361893 6.435578 2.573339 

-0.864406 -1.349065 -0.858290 
-1.349065 -0.032555 7.505915 
-0.858290 7.505915 -1.714894 

-0.539828 0.247033 10.011643 
0.247033 -1.531185 0.979898 
10.011643 0.979898 -0.984691 

-2.172889 -1.575579 1.270056 
-1.575579 1.028626 10.578423 
1.270056 10.578423 2.417770 

-1.272390 -0.409680 0.568993 
-0.409680 -0.962270 -1.897690 
0.568993 -1.897690 -0.631605 

-0.565242 -0.460888 0.141346 
-0.460888 -0.089077 0.956446 
0.141346 0.956446 0.805491 

2.262074 0.324963 0.602237 
0.324963 0.735852 -0.048900 
0.602237 -0.048900 0.680832 

2.453197 1.225239 -0.358696 
1.225239 0.604375 0.354750 
-0.358696 0.354750 -0.629629 

1.752407 0.940844 8.854552 
0.940844 -0.176219 0.066056 
8.854552 0.066056 -1.295398 

0.555251 -0.112208 0.761913 
-0.112208 1.941125 5.274972 
0.761913 5.274972 -0.436089 

0.983173 -0.112671 9.991238 
-0.112671 0.489673 7.205524 
9.991238 7.205524 -2.821317 

0.210061 -0.414903 5.577635 
-0.414903 0.791644 1.537975 
5.577635 1.537975 -0.682891 

1.210707 -0.556541 6.487096 
-0.556541 0.671470 3.486223 
6.487096 3.486223 1.645061 

1.099175 -0.013896 0.953093 
-0.013896 -0.548064 3.903576 
0.953093 3.903576 -0.667137 

1.452306 -0.873875 6.141717 
-0.873875 -1.099799 5.093848 
6.141717 5.093848 -1.653947 

1.433776 -0.757107 10.764565 
-0.757107 1.168943 0.372659 
10.764565 0.372659 -0.221862 

0.541744 0.439600 4.415707 
0.439600 1.615292 1.397561 
4.415707 1.397561 1.705251 

0.561253 0.169957 2.059899 
0.169957 0.910847 0.625177 
2.059899 0.625177 0.818470 

0.455448 0.321230 8.556119 
0.321230 0.867830 3.098020 
8.556119 3.098020 -0.769766 

1.740122 -0.334612 1.659679 
-0.334612 3.176536 2.867554 
1.659679 2.867554 1.593006 

1.186131 0.739867 4.805876 
0.739867 0.566600 7.765025 
4.805876 7.765025 -1.397279 

1.571523 -0.205421 5.858549 
-0.205421 1.166584 1.830723 
5.858549 1.830723 -0.336229 

0.494325 -0.045380 4.693016 
-0.045380 -0.290661 3.358416 
4.693016 3.358416 -0.476618 

-1.326666 1.842980 6.261635 
1.842980 -0.910311 -1.702771 
6.261635 -1.702771 0.741035 

-0.545499 0.336655 1.135052 
0.336655 4.292151 11.779198 
1.135052 11.779198 0.001787 

1.495687 0.715508 -0.430620 
0.715508 -0.241118 -4.423082 
-0.430620 -4.423082 -1.375222 

0.938187 1.230584 8.318212 
1.230584 0.537848 12.144824 
8.318212 12.144824 0.746479 

-2.152364 0.468686 -0.019058 
0.468686 -0.509295 0.728089 
-0.019058 0.728089 -0.308486 

-1.677898 -0.921435 4.425670 
-0.921435 -0.636677 -0.458501 
4.425670 -0.458501 -0.436247 

-0.724866 0.025227 0.184206 
0.025227 -0.028018 0.451317 
0.184206 0.451317 0.920889 

-1.116540 -0.259531 0.509419 
-0.259531 -0.433761 -0.119934 
0.509419 -0.119934 0.055361 

1.349204 0.279065 0.501226 
0.279065 0.529845 0.830307 
0.501226 0.830307 0.155697 

2.572071 1.476963 -0.006717 
1.476963 0.802457 -1.611807 
-0.006717 -1.611807 0.017145 

0.556763 1.784601 4.610403 
1.784601 1.241164 8.101914 
4.610403 8.101914 -0.895995 

-0.901596 0.905580 4.647205 
0.905580 -1.237377 5.288590 
4.647205 5.288590 -0.153573 

-0.884852 0.377259 -1.121549 
0.377259 0.243017 8.438298 
-1.121549 8.438298 1.373254 

0.395150 1.170397 0.441316 
1.170397 0.764936 5.355242 
0.441316 5.355242 0.851883 

0.593772 0.506857 -2.239183 
0.506857 1.726016 4.125168 
-2.239183 4.125168 -0.100376 

1.462439 0.742058 4.676732 
0.742058 0.163829 1.964874 
4.676732 1.964874 0.278730 

1.531562 -0.325743 4.131927 
-0.325743 2.117018 4.221054 
4.131927 4.221054 2.351930 

0.877883 -0.663173 0.891256 
-0.663173 0.835686 3.648714 
0.891256 3.648714 -0.903405 

1.377551 0.465340 5.475412 
0.465340 1.199160 5.510099 
5.475412 5.510099 -0.850430 

-0.648589 0.574480 6.835960 
0.574480 -0.004610 5.558939 
6.835960 5.558939 -2.050900 

-1.759180 1.286429 4.207113 
1.286429 1.126211 10.426977 
4.207113 10.426977 1.209892 

-0.066744 -0.101729 -1.082873 
-0.101729 0.577643 6.602019 
-1.082873 6.602019 -0.818006 

2.694339 0.931567 1.557717 
0.931567 0.455193 -0.407520 
1.557717 -0.407520 0.340651 

1.216614 -0.180965 6.772946 
-0.180965 0.006910 8.004985 
6.772946 8.004985 -2.502169 

-0.084664 -0.380231 5.193245 
-0.380231 -0.826651 4.923211 
5.193245 4.923211 -0.519484 

0.026391 0.921226 8.436789 
0.921226 1.914977 -1.413388 
8.436789 -1.413388 -0.502997 

0.358162 -0.108166 5.846437 
-0.108166 1.095857 7.128509 
5.846437 7.128509 2.563087 

0.938791 0.945162 0.401552 
0.945162 1.478151 9.442111 
0.401552 9.442111 -0.483915 

2.360212 -0.565930 7.236626 
-0.565930 0.179667 -1.042672 
7.236626 -1.042672 0.283219 

-1.491333 -0.141995 6.238578 
-0.141995 -2.293994 4.305437 
6.238578 4.305437 -1.474779 

-2.343424 0.099979 8.185202 
0.099979 0.082889 10.384450 
8.185202 10.384450 -0.668086 

-1.122745 -0.159431 0.081049 
-0.159431 0.484410 -2.112575 
0.081049 -2.112575 1.566533 

-1.939834 -0.301223 0.676599 
-0.301223 -0.391615 0.995984 
0.676599 0.995984 -0.285926 

0.973608 0.356911 0.394552 
0.356911 0.158545 -0.283509 
0.394552 -0.283509 -0.125698 

1.635276 1.845567 0.084903 
1.845567 0.775943 0.854173 
0.084903 0.854173 -0.207250 

2.673526 1.284082 3.746219 
1.284082 0.687123 -1.195070 
3.746219 -1.195070 0.364641 

1.031838 1.466053 1.004751 
1.466053 0.167318 6.593434 
1.004751 6.593434 1.098018 

2.437551 0.050097 9.144208 
0.050097 1.405138 0.973048 
9.144208 0.973048 1.078070 

1.433852 -0.767923 2.878153 
-0.767923 2.867419 -0.091413 
2.878153 -0.091413 1.129954 

0.941106 -0.695421 11.736732 
-0.695421 0.789368 4.890827 
11.736732 4.890827 -1.434388 

-0.989612 0.598605 2.395044 
0.598605 1.568215 0.370481 
2.395044 0.370481 2.399645 

0.969844 0.992704 -0.552655 
0.992704 3.023723 1.369798 
-0.552655 1.369798 0.949821 

0.699845 1.252852 -0.885704 
1.252852 0.646738 5.028359 
-0.885704 5.028359 -0.592548 

1.029930 1.100005 5.371814 
1.100005 -0.025083 0.556280 
5.371814 0.556280 -0.367714 

1.714425 -0.008340 -2.199168 
-0.008340 1.495068 6.777618 
-2.199168 6.777618 0.829737 

1.603574 -0.867461 9.343360 
-0.867461 -2.131392 -2.099182 
9.343360 -2.099182 -2.321988 

-0.016092 -0.580203 8.432535 
-0.580203 -0.053740 11.024404 
8.432535 11.024404 2.052250 

0.440606 0.485887 3.817616 
0.485887 0.023920 3.272885 
3.817616 3.272885 0.697124 

0.831154 -0.664852 0.513081 
-0.664852 -0.001096 8.595596 
0.513081 8.595596 0.521664 

0.378796 -0.280711 9.327050 
-0.280711 0.574714 0.077899 
9.327050 0.077899 0.940050 

1.313141 0.216894 -0.993078 
0.216894 2.895138 2.797210 
-0.993078 2.797210 0.739868 

-0.009959 0.417317 2.655399 
0.417317 -0.532343 6.471514 
2.655399 6.471514 -1.794825 

0.505082 0.198795 7.229136 
0.198795 -0.019159 -2.098421 
7.229136 -2.098421 1.153771 

0.356350 0.344474 0.836192 
0.344474 1.309629 8.364981 
0.836192 8.364981 0.012152 

-0.550078 1.103221 1.094121 
1.103221 -1.719852 0.366262 
1.094121 0.366262 -1.461197 

-1.485457 -1.380722 9.025731 
-1.380722 -0.725887 0.782310 
9.025731 0.782310 0.076346 

-1.483698 -0.617310 0.260031 
-0.617310 0.392414 0.482579 
0.260031 0.482579 1.648538 

-2.475366 -0.445726 0.660256 
-0.445726 -0.693312 -0.082964 
0.660256 -0.082964 -0.492109 

1.453950 0.438728 0.368519 
0.438728 0.474630 0.937807 
0.368519 0.937807 0.067326 

3.712791 1.549358 0.296018 
1.549358 0.350742 -1.910197 
0.296018 -1.910197 0.548728 

1.351519 1.784910 4.472330 
1.784910 0.137011 10.456698 
4.472330 10.456698 -2.456634 

1.166413 -0.066265 7.978670 
-0.066265 1.597121 -3.443010 
7.978670 -3.443010 -0.109280 

-1.854233 0.458544 4.955889 
0.458544 2.371130 6.837632 
4.955889 6.837632 -0.112415 

-0.868456 1.184685 -0.781277 
1.184685 0.966967 5.487400 
-0.781277 5.487400 -0.258147 

0.797510 0.373447 -3.056544 
0.373447 0.884298 8.004514 
-3.056544 8.004514 -1.465930 

1.194395 1.101470 5.198608 
1.101470 0.876661 -0.086645 
5.198608 -0.086645 -1.650982 

0.367948 0.136001 7.364306 
0.136001 2.555119 9.705630 
7.364306 9.705630 -1.683156 

0.942650 0.657630 6.287179 
0.657630 0.107303 1.061360 
6.287179 1.061360 1.593459 

-1.185099 0.591556 2.006282 
0.591556 0.762283 10.936190 
2.006282 10.936190 -0.906541 

-0.124534 0.383601 6.983916 
0.383601 0.007186 2.855612 
6.983916 2.855612 0.671507 

0.459584 -0.221257 -1.097033 
-0.221257 2.743201 12.090614 
-1.097033 12.090614 1.513737 

1.719826 -0.427453 0.044673 
-0.427453 0.255718 -3.193712 
0.044673 -3.193712 0.215673 

0.487874 -0.527232 5.985549 
-0.527232 -0.828683 3.281269 
5.985549 3.281269 -0.452910 

0.285185 -0.788319 3.642722 
-0.788319 1.258783 0.225606 
3.642722 0.225606 1.499850 

0.579285 0.961893 3.379986 
0.961893 0.542902 0.666917 
3.379986 0.666917 0.048674 

1.058369 -0.268551 -0.947440 
-0.268551 1.020784 8.629754 
-0.947440 8.629754 -2.023581 

2.073429 0.542197 12.194679 
0.542197 -1.454066 3.276432 
12.194679 3.276432 -1.148151 

-0.591461 -0.057739 0.949945 
-0.057739 -0.266991 7.988699 
0.949945 7.988699 -0.814925 

1.661436 -0.173918 7.626824 
-0.173918 -1.274696 4.160490 
7.626824 4.160490 -0.545232 

-0.854167 0.101596 6.934776 
0.101596 -0.602698 0.225982 
6.934776 0.225982 -0.351910 

-2.941694 -1.066171 7.159854 
-1.066171 0.346683 8.868477 
7.159854 8.868477 -0.970594 

-1.189362 -0.767779 0.148499 
-0.767779 0.099363 -1.403797 
0.148499 -1.403797 1.401070 

-1.955828 -0.579039 0.697045 
-0.579039 -0.664833 0.819487 
0.697045 0.819487 -0.382093 

1.891470 0.234358 0.808825 
0.234358 0.591875 -0.083524 
0.808825 -0.083524 0.749931 

3.426270 1.221786 -0.862474 
1.221786 0.893902 0.359750 
-0.862474 0.359750 -0.412913 

2.376671 0.516735 8.057307 
0.516735 0.616145 0.124178 
8.057307 0.124178 1.276537 

-0.664531 0.428105 3.747897 
0.428105 2.396085 8.602068 
3.747897 8.602068 -0.817364 

1.704965 -0.283098 1.642191 
-0.283098 0.075395 6.159589 
1.642191 6.159589 -0.729040 

0.831681 1.240909 8.132538 
1.240909 -2.484693 6.817649 
8.132538 6.817649 -1.898182 

-0.830907 2.160865 9.543420 
2.160865 -0.105748 7.232407 
9.543420 7.232407 2.591534 

0.254737 2.338528 -1.505585 
2.338528 3.301120 2.910378 
-1.505585 2.910378 2.108390 

0.323445 -0.160666 -2.079362 
-0.160666 0.912039 7.953372 
-2.079362 7.953372 -1.488618 

-0.764383 0.572487 6.082924 
0.572487 -0.738883 1.539981 
6.082924 1.539981 -2.159535 

1.381414 1.031140 3.192802 
1.031140 1.886481 0.709364 
3.192802 0.709364 4.646374 

-0.357075 0.504684 -2.324273 
0.504684 0.300277 3.950670 
-2.324273 3.950670 -1.955344 

0.035450 0.497680 7.274197 
0.497680 -0.871706 -1.380842 
7.274197 -1.380842 0.087800 

0.463094 0.838230 -0.571669 
0.838230 2.875104 7.443671 
-0.571669 7.443671 1.088782 

-0.006101 1.402571 0.202300 
1.402571 -0.112891 1.903289 
0.202300 1.903289 -0.689149 

-0.105946 1.195798 3.241540 
1.195798 1.623283 5.215064 
3.241540 5.215064 -0.631317 

0.684112 1.355296 -1.681994 
1.355296 -0.246875 5.301548 
-1.681994 5.301548 -0.307985 

2.044068 1.072374 6.396022 
1.072374 0.011609 6.288771 
6.396022 6.288771 1.507290 

1.306958 0.660191 -3.924530 
0.660191 0.817519 5.047447 
-3.924530 5.047447 1.287363 

2.116441 0.222632 8.035459 
0.222632 -1.427817 3.160036 
8.035459 3.160036 -0.364371 

-0.996954 -0.957243 5.425823 
-0.957243 -0.823554 3.328257 
5.425823 3.328257 0.268387 

-1.394956 -0.386605 4.617329 
-0.386605 1.253458 -0.772948 
4.617329 -0.772948 -0.599375 

-1.587863 -1.825877 5.179488 
-1.825877 -0.440946 5.161274 
5.179488 5.161274 1.203806 

-1.268322 -0.714922 0.255137 
-0.714922 -0.738732 -0.338917 
0.255137 -0.338917 0.360598 

-1.237755 -0.513836 0.387885 
-0.513836 -0.389690 0.315975 
0.387885 0.315975 0.098409 

1.047395 0.156499 0.243417 
0.156499 -0.091108 0.089401 
0.243417 0.089401 -0.204077 

1.577920 1.082019 0.490970 
1.082019 1.020306 0.000183 
0.490970 0.000183 0.179390 

0.673282 1.183650 3.215417 
1.183650 2.284537 0.600714 
3.215417 0.600714 -1.817889 

2.041966 0.703520 3.534298 
0.703520 -0.124916 7.308411 
3.534298 7.308411 2.517151 

3.140106 0.293628 -1.414460 
0.293628 0.324528 6.922577 
-1.414460 6.922577 1.098722 

2.993907 0.008116 7.023913 
0.008116 -0.109667 1.262600 
7.023913 1.262600 -0.978331 

0.320906 -0.329959 9.160617 
-0.329959 -1.392268 -1.670335 
9.160617 -1.670335 -0.739005 

-1.255239 0.969297 8.193803 
0.969297 -0.590027 8.132560 
8.193803 8.132560 -2.004753 

-0.299463 0.603868 7.802639 
0.603868 0.290303 8.299620 
7.802639 8.299620 1.219423 

-0.351904 0.236495 2.528299 
0.236495 0.734454 5.540665 
2.528299 5.540665 0.899417 

-0.297986 1.546060 1.815685 
1.546060 -1.079422 1.642671 
1.815685 1.642671 -2.278813 

1.429474 1.711763 4.601977 
1.711763 1.871961 9.090158 
4.601977 9.090158 0.184763 

-1.663866 1.360515 3.216034 
1.360515 -0.913625 8.084025 
3.216034 8.084025 -2.400534 

-0.321842 0.226937 6.516892 
0.226937 -0.602903 2.509503 
6.516892 2.509503 -0.407575 

0.753206 1.608058 1.503219 
1.608058 1.155462 0.236465 
1.503219 0.236465 0.873908 

-1.011285 0.933029 4.376631 
0.933029 -0.969475 7.090930 
4.376631 7.090930 -1.821451 

1.717536 1.471417 3.137226 
1.471417 0.494122 -0.439644 
3.137226 -0.439644 2.063059 

1.671912 -0.240062 1.197411 
-0.240062 1.047366 2.622380 
1.197411 2.622380 -0.645427 

2.584835 -1.303355 12.175464 
-1.303355 0.255576 0.939047 
12.175464 0.939047 -0.799893 

-1.037898 -0.653964 2.957193 
-0.653964 0.745849 1.453159 
2.957193 1.453159 1.335434 

-0.994840 0.512227 4.990642 
0.512227 0.252068 2.332359 
4.990642 2.332359 1.070570 

-2.499796 0.201785 -0.758283 
0.201785 -1.088336 4.695498 
-0.758283 4.695498 -1.954997 

-1.526204 -0.308764 0.928488 
-0.308764 -0.253199 3.648896 
0.928488 3.648896 -0.471852 

-0.539661 -0.022272 0.470109 
-0.022272 -0.003681 -0.694597 
0.470109 -0.694597 0.333173 

-0.495921 -0.391565 0.236019 
-0.391565 -0.044985 0.514823 
0.236019 0.514823 0.506357 

0.190175 0.307764 -0.048834 
0.307764 -0.158163 0.616540 
-0.048834 0.616540 -0.632495 

0.909966 2.358663 0.952010 
2.358663 -0.003296 -1.529834 
0.952010 -1.529834 0.609656 

1.716360 0.042776 -1.130179 
0.042776 1.209345 9.336148 
-1.130179 9.336148 -1.932454 

3.201057 0.752258 2.042300 
0.752258 -1.024439 1.099979 
2.042300 1.099979 0.063104 

0.428470 0.030898 8.170478 
0.030898 -1.908058 1.686329 
8.170478 1.686329 -1.822860 

-0.462721 1.123347 6.457445 
1.123347 0.103953 4.856887 
6.457445 4.856887 0.541318 

1.393500 1.113444 -1.695635 
1.113444 1.368414 6.735021 
-1.695635 6.735021 0.155189 

-0.861860 0.300944 8.183149 
0.300944 -3.287518 7.938070 
8.183149 7.938070 -3.154145 

-0.517117 -1.224421 7.047120 
-1.224421 -0.488889 2.296082 
7.047120 2.296082 2.206220 

1.624487 -0.521893 0.398344 
-0.521893 0.563008 2.380343 
0.398344 2.380343 1.104566 

1.669886 1.526398 7.148451 
1.526398 -0.970036 6.378880 
7.148451 6.378880 -0.955816 

0.874574 -0.687059 6.989397 
-0.687059 -0.309613 2.999850 
6.989397 2.999850 -0.286518 

1.811513 -0.290404 8.125271 
-0.290404 -0.338955 1.022332 
8.125271 1.022332 2.367787 

-0.333695 0.331681 4.735900 
0.331681 0.786241 10.170874 
4.735900 10.170874 0.712596 

1.069010 -0.086609 4.937747 
-0.086609 -0.230179 2.115135 
4.937747 2.115135 -1.427134 

0.000354 -0.776588 8.259898 
-0.776588 -2.116758 7.297348 
8.259898 7.297348 -1.012728 

-1.594358 0.457932 9.446815 
0.457932 -1.592222 3.216897 
9.446815 3.216897 0.098120 

0.229319 -0.035013 0.909322 
-0.035013 1.487424 6.035463 
0.909322 6.035463 1.704988 

-0.324451 -1.124641 -1.921768 
-1.124641 0.773750 5.841739 
-1.921768 5.841739 -2.771152 

0.032642 -0.038132 10.627389 
-0.038132 -0.822563 2.739095 
10.627389 2.739095 -0.829270 

1.535767 0.717035 -2.663361 
0.717035 0.593341 -0.709630 
-2.663361 -0.709630 1.098491 

0.401768 0.823567 6.454713 
0.823567 -0.644492 6.602688 
6.454713 6.602688 -1.443714 

-1.720506 -1.681614 10.019695 
-1.681614 -0.121853 3.685618 
10.019695 3.685618 0.243256 

-0.963253 -0.766157 -0.382859 
-0.766157 0.421390 -0.042162 
-0.382859 -0.042162 1.741218 

-2.254913 -0.291650 0.711103 
-0.291650 -1.025764 0.162082 
0.711103 0.162082 -1.038772 

1.000695 0.418445 0.391692 
0.418445 0.783089 0.811349 
0.391692 0.811349 0.664242 

3.068100 1.783997 -0.585647 
1.783997 -0.056263 -1.981012 
-0.585647 -1.981012 0.258481 

1.796283 -0.482173 3.966473 
-0.482173 -1.726971 10.560737 
3.966473 10.560737 -0.404164 

1.540664 -0.330208 7.347452 
-0.330208 -1.537313 0.180137 
7.347452 0.180137 -0.294385 

0.140081 -0.506789 1.604918 
-0.506789 -1.432975 7.134229 
1.604918 7.134229 -1.000150 

-0.794933 0.707583 8.396677 
0.707583 -3.456971 4.795112 
8.396677 4.795112 -0.969334 

-1.496795 -0.152849 3.350494 
-0.152849 -0.956418 0.013729 
3.350494 0.013729 0.069704 

-0.607084 0.705146 4.498479 
0.705146 -1.564556 4.307186 
4.498479 4.307186 1.814159 

-0.285314 -0.828899 -0.147684 
-0.828899 -1.504330 5.524935 
-0.147684 5.524935 -0.355069 

-0.183302 -0.272728 1.027820 
-0.272728 -1.957451 4.355647 
1.027820 4.355647 -2.879567 

0.279314 1.160900 7.153211 
1.160900 -1.946343 -2.306427 
7.153211 -2.306427 0.439795 

-0.722366 -0.598254 -0.770359 
-0.598254 0.275861 11.507837 
-0.770359 11.507837 0.097388 

-0.622151 0.049292 1.956926 
0.049292 -1.274409 -0.275902 
1.956926 -0.275902 -3.120048 

-0.830620 -0.530734 6.192909 
-0.530734 -1.613586 -1.020122 
6.192909 -1.020122 -0.543814 

-0.846302 -0.318026 3.302421 
-0.318026 -0.554001 6.617789 
3.302421 6.617789 1.472493 

0.391612 -0.415479 -2.164675 
-0.415479 -0.760799 0.196017 
-2.164675 0.196017 0.448129 

-0.696697 -0.045579 6.796514 
-0.045579 -1.939420 -1.042420 
6.796514 -1.042420 -1.470561 

-1.898598 -0.046681 1.435463 
-0.046681 -2.280683 6.084853 
1.435463 6.084853 0.708288 

0.080868 -0.331313 3.706672 
-0.331313 -1.049130 4.721996 
3.706672 4.721996 -0.210199 

0.592837 0.875894 -3.468607 
0.875894 -1.641259 2.812845 
-3.468607 2.812845 0.183170 

-1.125086 1.835492 5.821208 
1.835492 -2.206896 6.619516 
5.821208 6.619516 -2.973785 

-2.182830 0.098535 4.619591 
0.098535 -0.248631 -2.921283 
4.619591 -2.921283 0.318694 

-2.031234 -1.606124 -1.987550 
-1.606124 -0.242473 6.076930 
-1.987550 6.076930 -0.077902 

-0.705320 -0.318682 0.666885 
-0.318682 -0.645539 -0.916050 
0.666885 -0.916050 -0.550985 

0.053080 -0.539417 0.046733 
-0.539417 0.420669 0.557834 
0.046733 0.557834 0.922472 

0.394544 0.150691 0.154799 
0.150691 0.286155 -0.081772 
0.154799 -0.081772 0.267011 

2.146260 0.733384 -0.313460 
0.733384 0.512707 0.240176 
-0.313460 0.240176 0.433996 

1.709579 -0.651880 1.236553 
-0.651880 -1.266357 -0.228030 
1.236553 -0.228030 1.224098 

1.029818 -0.988738 3.636637 
-0.988738 -1.181032 2.957703 
3.636637 2.957703 0.443656 

3.117436 -1.379470 1.012873 
-1.379470 -0.657000 1.708725 
1.012873 1.708725 1.683958 

0.507402 -1.839962 8.508245 
-1.839962 -3.295397 -2.253206 
8.508245 -2.253206 -1.818687 

-2.031748 -1.386368 9.385373 
-1.386368 -1.598748 11.642460 
9.385373 11.642460 -0.935666 

-0.533482 -1.079668 3.999853 
-1.079668 -0.903682 -1.854069 
3.999853 -1.854069 2.079810 

1.339410 -1.163618 1.502069 
-1.163618 -1.437059 4.898944 
1.502069 4.898944 0.976439 

0.641445 -1.609549 5.645638 
-1.609549 -2.172751 5.111571 
5.645638 5.111571 -0.899882 

0.600956 -0.847506 6.911460 
-0.847506 -1.463716 3.179578 
6.911460 3.179578 -0.880126 

0.489859 -1.806980 6.873520 
-1.806980 -2.683159 2.982301 
6.873520 2.982301 1.386655 

-0.583151 -1.082289 7.750060 
-1.082289 -1.557125 7.347779 
7.750060 7.347779 -0.531358 

-1.233666 -1.625095 3.097149 
-1.625095 -1.573438 8.043115 
3.097149 8.043115 -1.365872 

-1.537064 -2.048845 7.735025 
-2.048845 -2.816502 1.692874 
7.735025 1.692874 -0.444846 

-1.001731 -0.944139 4.358603 
-0.944139 -0.564858 2.164800 
4.358603 2.164800 1.438641 

0.024019 -0.482142 -1.914605 
-0.482142 -1.001224 4.513440 
-1.914605 4.513440 -0.869130 

1.897003 -0.214321 6.233071 
-0.214321 -1.912492 -0.664642 
6.233071 -0.664642 0.851421 

0.912710 -2.358350 0.510154 
-2.358350 -1.756171 8.774221 
0.510154 8.774221 -0.147509 

2.474962 -2.250484 11.554907 
-2.250484 -1.609908 -0.854929 
11.554907 -0.854929 -1.090902 

-0.471952 -1.433035 7.255981 
-1.433035 -1.471820 -0.840230 
7.255981 -0.840230 1.807811 

-3.147041 -1.010437 5.508316 
-1.010437 -1.475769 10.877730 
5.508316 10.877730 -2.200877 

-1.943297 -2.095550 5.159305 
-2.095550 -2.079176 4.892176 
5.159305 4.892176 0.904745 

-0.838513 -0.601429 -0.097140 
-0.601429 -0.015330 -0.572254 
-0.097140 -0.572254 0.497474 

-1.140738 -0.358316 0.345111 
-0.358316 -0.296832 0.446943 
0.345111 0.446943 -0.214619 

0.027102 0.034955 -0.054717 
0.034955 -0.001111 0.009323 
-0.054717 0.009323 -0.050240 

0.182507 0.086333 0.114993 
0.086333 0.050496 0.009427 
0.114993 0.009427 0.153622 

0.417392 0.197601 -0.227907 
0.197601 -0.025911 0.075827 
-0.227907 0.075827 -0.040652 

0.545128 -0.336184 -0.594204 
-0.336184 -0.493325 -0.000163 
-0.594204 -0.000163 0.518982 

-0.195523 -0.396854 0.441698 
-0.396854 -0.416952 0.001412 
0.441698 0.001412 0.068216 

0.264288 0.393248 -1.854898 
0.393248 0.042911 0.354247 
-1.854898 0.354247 -0.087162 

0.419056 -0.849357 -1.246925 
-0.849357 -1.313280 -0.395851 
-1.246925 -0.395851 1.871298 

-1.016157 -0.507439 -0.306719 
-0.507439 -1.262555 0.923994 
-0.306719 0.923994 -0.985191 

0.296313 -0.323124 -0.082800 
-0.323124 -0.591798 -0.059911 
-0.082800 -0.059911 0.903728 

0.198135 -0.462704 -0.701257 
-0.462704 -0.651964 -0.019728 
-0.701257 -0.019728 1.045084 

-0.057651 -0.369576 -0.960358 
-0.369576 -0.631042 0.207077 
-0.960358 0.207077 0.655471 

-0.133613 -0.151374 -1.078890 
-0.151374 -0.845240 0.194870 
-1.078890 0.194870 0.177135 

0.260877 -0.487003 -1.338556 
-0.487003 -1.157189 0.098238 
-1.338556 0.098238 1.291310 

0.055085 -0.876748 0.170713 
-0.876748 -1.131902 0.046514 
0.170713 0.046514 1.566266 

-0.623861 -0.514678 -1.092436 
-0.514678 -0.805193 0.309070 
-1.092436 0.309070 0.066183 

-0.629398 -0.359308 -0.723399 
-0.359308 -0.971955 0.352931 
-0.723399 0.352931 -0.171584 

0.111397 -0.264629 0.953634 
-0.264629 -0.386670 -0.110624 
0.953634 -0.110624 1.060052 

0.408487 0.106235 -1.471119 
0.106235 -0.376175 0.467684 
-1.471119 0.467684 -0.052962 

0.822244 -0.868145 0.622254 
-0.868145 -0.737188 -0.392486 
0.622254 -0.392486 1.760752 

-0.833844 -0.517206 -1.857758 
-0.517206 -0.400449 0.329738 
-1.857758 0.329738 -0.224540 

-0.393013 0.344318 -1.465439 
0.344318 -0.506842 0.423227 
-1.465439 0.423227 -0.707056 

0.879240 -0.604332 -0.765689 
-0.604332 -1.081407 -0.258404 
-0.765689 -0.258404 2.302040 

-0.664241 -1.116262 -0.313045 
-1.116262 -1.513575 0.304614 
-0.313045 0.304614 0.268496 

-0.621737 -0.374995 0.353636 
-0.374995 -0.452888 0.346291 
0.353636 0.346291 -0.448647 

-0.229831 -0.264490 0.009046 
-0.264490 0.039877 0.002197 
0.009046 0.002197 0.371751 

-0.008308 0.013118 0.014506 
0.013118 0.019723 -0.023362 
0.014506 -0.023362 0.054837 

-0.049222 0.051225 -0.070198 
0.051225 -0.074932 0.029743 
-0.070198 0.029743 -0.031629 

0.170262 -0.060842 0.074926 
-0.060842 -0.024104 0.055551 
0.074926 0.055551 0.217878 

-0.405845 -0.170293 0.316231 
-0.170293 -1.053602 0.159400 
0.316231 0.159400 -0.379593 

-0.429114 -0.263031 -0.166259 
-0.263031 -0.541128 0.190490 
-0.166259 0.190490 -0.113387 

0.413448 -0.347570 0.841841 
-0.347570 0.347692 0.111085 
0.841841 0.111085 0.759274 

-0.693609 -0.360478 0.565319 
-0.360478 -2.565065 0.705171 
0.565319 0.705171 -1.135749 

0.464691 -0.602036 0.279452 
-0.602036 -0.203471 -0.043116 
0.279452 -0.043116 1.111201 

-0.615313 -0.351047 0.239927 
-0.351047 -1.224586 0.493342 
0.239927 0.493342 -0.274152 

-0.698773 -0.383308 0.423955 
-0.383308 -1.361931 0.454184 
0.423955 0.454184 -0.409227 

-0.392309 -0.383399 0.517348 
-0.383399 -0.932645 0.320905 
0.517348 0.320905 -0.024887 

0.010998 -0.434824 0.544097 
-0.434824 -0.743658 0.340961 
0.544097 0.340961 0.350738 

-0.380868 -0.490343 0.722668 
-0.490343 -1.852724 0.531379 
0.722668 0.531379 -0.369575 

-0.815140 -0.506222 0.101947 
-0.506222 -2.084602 0.615823 
0.101947 0.615823 -0.687826 

-0.072034 -0.536141 0.631183 
-0.536141 -0.531550 0.325793 
0.631183 0.325793 0.396981 

-0.107923 -0.356612 0.508382 
-0.356612 -0.643284 0.101393 
0.508382 0.101393 0.394098 

-0.541092 -0.173215 -0.317113 
-0.173215 -1.010977 0.475540 
-0.317113 0.475540 -0.376652 

0.153112 -0.288762 0.778908 
-0.288762 -0.249261 0.052683 
0.778908 0.052683 0.587538 

-1.372281 -0.321897 -0.139853 
-0.321897 -2.357281 0.604219 
-0.139853 0.604219 -1.315269 

-0.037876 -0.535114 0.875366 
-0.535114 0.056322 0.157294 
0.875366 0.157294 0.442644 

0.656069 -0.355466 0.689570 
-0.355466 0.349055 -0.005362 
0.689570 -0.005362 1.098790 

-0.579863 -0.368551 0.443714 
-0.368551 -2.573529 0.781263 
0.443714 0.781263 -1.079241 

-0.112495 -0.623487 0.348709 
-0.623487 -1.439555 0.326544 
0.348709 0.326544 -0.018043 

0.089240 -0.325743 0.064515 
-0.325743 0.032700 0.059606 
0.064515 0.059606 0.467711 

0.181387 -0.212470 0.179229 
-0.212470 0.225929 0.133709 
0.179229 0.133709 0.579018 

-0.551365 0.124816 0.221804 
0.124816 -0.649476 0.165305 
0.221804 0.165305 -0.779323 

0.011487 0.620784 0.038676 
0.620784 0.556290 0.083125 
0.038676 0.083125 -0.371616 

0.168230 0.201546 0.262851 
0.201546 1.055617 0.520440 
0.262851 0.520440 0.366766 

-0.092632 -0.175679 0.422541 
-0.175679 1.393619 0.338026 
0.422541 0.338026 -0.400393 

0.440527 -0.100074 0.277271 
-0.100074 0.958709 0.539623 
0.277271 0.539623 0.195226 

0.859454 0.050870 0.380557 
0.050870 1.284323 0.258885 
0.380557 0.258885 -0.016802 

-1.098670 -0.226881 0.705408 
-0.226881 -0.171278 0.417553 
0.705408 0.417553 -0.918507 

1.532607 0.852489 -0.363324 
0.852489 1.653317 0.433066 
-0.363324 0.433066 0.664525 

0.069569 -0.525080 0.960343 
-0.525080 1.373721 0.347253 
0.960343 0.347253 0.105829 

-0.373863 -0.165150 0.613825 
-0.165150 0.288580 0.350227 
0.613825 0.350227 -0.497165 

0.639394 0.433370 0.055416 
0.433370 0.797099 0.446744 
0.055416 0.446744 0.431425 

0.683971 0.064814 0.352665 
0.064814 1.396618 0.204420 
0.352665 0.204420 0.212509 

-0.478038 -0.162621 0.555623 
-0.162621 0.044488 0.348987 
0.555623 0.348987 -0.446225 

0.465303 0.549228 -0.081582 
0.549228 0.866814 0.285104 
-0.081582 0.285104 -0.214793 

0.492319 0.064395 0.312320 
0.064395 1.340797 0.439953 
0.312320 0.439953 0.467153 

-0.506624 -0.242549 0.446910 
-0.242549 0.577203 0.436052 
0.446910 0.436052 -0.433273 

1.397950 0.405659 -0.093097 
0.405659 1.461960 0.414457 
-0.093097 0.414457 0.586740 

-0.283152 -0.483784 0.925865 
-0.483784 0.755494 0.278309 
0.925865 0.278309 -0.335910 

-0.325261 0.044387 0.429749 
0.044387 0.276979 0.370831 
0.429749 0.370831 -0.449032 

1.078021 0.262354 0.161643 
0.262354 1.477211 0.390006 
0.161643 0.390006 0.895252 

-1.178976 -0.644785 0.781935 
-0.644785 0.083731 0.210079 
0.781935 0.210079 -0.686079 

1.525246 0.544059 -0.309580 
0.544059 1.023913 0.076833 
-0.309580 0.076833 0.409804 

-1.091954 -0.863990 1.029417 
-0.863990 -0.125047 0.032526 
1.029417 0.032526 -0.517671 

0.316980 0.226673 -0.219653 
0.226673 -0.279703 0.112589 
-0.219653 0.112589 0.209831 

0.531778 -0.076535 0.070549 
-0.076535 0.408751 -0.143823 
0.070549 -0.143823 0.257297 

1.086109 0.661883 0.037258 
0.661883 1.092498 -0.088839 
0.037258 -0.088839 0.213479 

-1.572447 0.554378 0.404151 
0.554378 -2.564220 0.615905 
0.404151 0.615905 -0.970010 

4.794305 1.816678 -0.142730 
1.816678 14.740300 -0.573269 
-0.142730 -0.573269 4.096348 

2.775633 2.493744 -0.664564 
2.493744 6.305183 0.545251 
-0.664564 0.545251 2.151875 

4.365700 2.880961 -0.441845 
2.880961 11.477369 -0.329734 
-0.441845 -0.329734 3.152919 

1.948480 3.276711 -0.619140 
3.276711 5.083576 0.355225 
-0.619140 0.355225 1.439211 

5.197524 4.668925 -1.414600 
4.668925 6.549637 0.130446 
-1.414600 0.130446 2.807783 

0.599862 0.713355 1.008902 
0.713355 8.838373 -0.031573 
1.008902 -0.031573 1.479369 

5.420598 6.146458 -1.778623 
6.146458 10.883021 -0.178804 
-1.778623 -0.178804 3.432448 

3.593128 5.508021 -1.316182 
5.508021 4.790583 0.257352 
-1.316182 0.257352 1.665660 

3.434478 2.495081 0.167394 
2.495081 11.684787 -0.497086 
0.167394 -0.497086 2.954470 

2.070858 3.021464 -0.494274 
3.021464 6.051276 0.169208 
-0.494274 0.169208 1.625731 

4.489860 3.950678 -1.044530 
3.950678 7.156472 -0.059915 
-1.044530 -0.059915 2.743199 

0.735410 0.786099 0.445197 
0.786099 4.552930 0.354251 
0.445197 0.354251 1.241766 

4.302210 2.315905 -0.402228 
2.315905 12.423387 -0.440261 
-0.402228 -0.440261 3.229419 

4.671406 2.815238 -0.767246 
2.815238 8.670894 0.049773 
-0.767246 0.049773 2.923389 

1.725341 1.123636 0.379491 
1.123636 9.104197 -0.097763 
0.379491 -0.097763 1.882677 

4.034108 5.717544 -1.859950 
5.717544 5.937004 0.124897 
-1.859950 0.124897 2.038921 

2.377252 4.630293 -0.824185 
4.630293 4.870042 0.147656 
-0.824185 0.147656 1.411874 

3.514164 3.161356 -0.111059 
3.161356 13.266338 -0.569226 
-0.111059 -0.569226 3.185497 

4.282596 4.795985 -1.707331 
4.795985 4.129779 0.298553 
-1.707331 0.298553 2.113537 

-2.878860 0.852680 0.668397 
0.852680 0.018168 0.275954 
0.668397 0.275954 -0.698191 

4.824117 5.409926 -2.626118 
5.409926 4.596498 0.052115 
-2.626118 0.052115 2.984037 

-0.474614 0.186093 0.516317 
0.186093 0.351896 -0.202418 
0.516317 -0.202418 -0.389514 

-0.425685 0.271578 -0.051052 
0.271578 -0.079439 0.065151 
-0.051052 0.065151 0.195855 

0.324564 -0.444057 0.199048 
-0.444057 -0.461469 0.961778 
0.199048 0.961778 -0.368573 

4.706259 6.084706 0.052854 
6.084706 3.753718 -1.808368 
0.052854 -1.808368 2.105403 

1.195593 -3.578812 2.380272 
-3.578812 -0.015054 10.179483 
2.380272 10.179483 -2.882745 

4.125356 0.482641 3.966444 
0.482641 8.865672 2.112837 
3.966444 2.112837 1.263075 

-0.604425 -0.478068 4.210706 
-0.478068 -3.388785 8.186221 
4.210706 8.186221 -2.743881 

4.531235 -1.347999 4.352114 
-1.347999 4.189205 2.797003 
4.352114 2.797003 0.875499 

-5.591863 -0.754884 7.899613 
-0.754884 4.979736 2.230568 
7.899613 2.230568 -0.936012 

13.673837 5.207037 -2.282346 
5.207037 0.430249 6.727665 
-2.282346 6.727665 2.927902 

-6.684257 -2.950944 11.537491 
-2.950944 -12.875227 8.695707 
11.537491 8.695707 -9.881699 

-4.951026 3.172730 8.411649 
3.172730 3.844092 1.447324 
8.411649 1.447324 -0.147877 

0.160765 -0.267325 2.049354 
-0.267325 -2.160563 8.181707 
2.049354 8.181707 -1.311574 

-0.067102 2.907692 3.884148 
2.907692 -2.565219 4.096427 
3.884148 4.096427 -2.301676 

-5.657768 -1.201558 5.809083 
-1.201558 4.144981 3.195597 
5.809083 3.195597 -1.486441 

9.292212 2.769107 -0.136445 
2.769107 14.214030 0.918366 
-0.136445 0.918366 5.482375 

-6.382376 0.723207 4.019156 
0.723207 -16.067755 10.967183 
4.019156 10.967183 -8.529853 

-1.602169 -0.021656 4.520493 
-0.021656 5.387982 4.408870 
4.520493 4.408870 -0.239788 

9.906072 -0.799342 0.306191 
-0.799342 -2.341548 7.279561 
0.306191 7.279561 0.419235 

-4.920813 -3.853402 10.705816 
-3.853402 -9.742849 4.577073 
10.705816 4.577073 -6.730823 

-0.091479 1.146520 6.534160 
1.146520 4.424114 1.807425 
6.534160 1.807425 1.032706 

-1.307462 -0.572743 3.759855 
-0.572743 -9.580969 10.740881 
3.759855 10.740881 -4.589082 

-6.541482 -1.089111 7.940201 
-1.089111 4.786629 0.764827 
7.940201 0.764827 -1.418434 

14.359070 1.009519 -0.640779 
1.009519 12.729406 -0.308493 
-0.640779 -0.308493 6.742077 

-11.752652 -5.175938 11.905165 
-5.175938 2.324826 0.853273 
11.905165 0.853273 -5.760362 

0.769926 0.272737 -1.053339 
0.272737 0.580785 -0.008674 
-1.053339 -0.008674 2.739802 

-0.308954 -0.064339 0.382283 
-0.064339 0.393093 -0.030287 
0.382283 -0.030287 -0.614707 

0.518629 0.292791 0.156663 
0.292791 0.551107 0.419694 
0.156663 0.419694 -0.167580 

-0.703835 5.084417 0.399605 
5.084417 -0.454782 -0.579348 
0.399605 -0.579348 -0.553312 

5.645139 3.394967 -0.689198 
3.394967 7.049728 5.726565 
-0.689198 5.726565 3.517253 

1.324349 1.233563 -0.151217 
1.233563 -13.078523 10.855155 
-0.151217 10.855155 -4.792860 

-4.074597 -0.695099 5.550671 
-0.695099 2.896065 2.552315 
5.550671 2.552315 -0.654215 

2.629573 4.112032 0.246156 
4.112032 8.394073 2.733483 
0.246156 2.733483 3.408530 

16.533083 1.509527 -1.679474 
1.509527 9.431888 5.837539 
-1.679474 5.837539 4.787309 

-4.128758 -5.624390 11.759128 
-5.624390 -0.096837 0.780737 
11.759128 0.780737 -2.525283 

7.502440 1.904962 2.557637 
1.904962 6.075636 -0.297943 
2.557637 -0.297943 5.587307 

-2.508405 -1.683191 7.561530 
-1.683191 5.390654 4.692200 
7.561530 4.692200 -1.330749 

8.400546 0.982846 2.343889 
0.982846 5.504766 2.817475 
2.343889 2.817475 4.988022 

-8.214410 -1.475075 9.875402 
-1.475075 -0.164526 0.842259 
9.875402 0.842259 -2.594305 

-3.355970 1.389018 1.303435 
1.389018 -1.442739 6.828310 
1.303435 6.828310 0.357261 

2.695867 -1.152241 -0.975971 
-1.152241 -10.431716 11.553793 
-0.975971 11.553793 -3.291235 

-0.522809 5.758857 5.810795 
5.758857 10.189118 -4.371378 
5.810795 -4.371378 3.023823 

-3.428891 -3.232425 0.104929 
-3.232425 -10.778811 10.405206 
0.104929 10.405206 -3.137148 

0.563305 2.628741 1.857657 
2.628741 4.321756 0.025463 
1.857657 0.025463 2.532127 

6.719474 3.239313 -0.152426 
3.239313 8.774449 -1.412185 
-0.152426 -1.412185 5.159187 

7.637425 -0.926778 1.165925 
-0.926778 -4.967083 5.977591 
1.165925 5.977591 -0.052201 

1.965542 0.355536 8.545479 
0.355536 11.624371 -1.913230 
8.545479 -1.913230 3.144204 

-5.143458 -3.542710 4.795987 
-3.542710 -0.125634 6.084405 
4.795987 6.084405 -1.399860 

-4.614624 4.555586 1.598759 
4.555586 -2.180126 4.582186 
1.598759 4.582186 -2.391904 

-1.067387 0.570129 -0.513720 
0.570129 0.576813 7.143069 
-0.513720 7.143069 -0.626240 

-0.611383 0.174779 0.600503 
0.174779 1.288160 -1.236628 
0.600503 -1.236628 0.401577 

-1.248646 0.366478 0.107626 
0.366478 -0.446875 0.573864 
0.107626 0.573864 0.020546 

0.158030 -0.091525 0.309236 
-0.091525 -0.499674 0.897432 
0.309236 0.897432 -0.323816 

8.430223 6.499190 -0.230401 
6.499190 4.272446 -1.574719 
-0.230401 -1.574719 2.996611 

5.189149 -4.888374 4.581514 
-4.888374 -0.777949 10.192328 
4.581514 10.192328 -1.556090 

-3.677655 -0.187210 9.495160 
-0.187210 2.576928 -3.511019 
9.495160 -3.511019 1.729014 

3.437961 2.944132 0.703720 
2.944132 -4.049231 7.552247 
0.703720 7.552247 0.078826 

4.579376 2.317778 4.953430 
2.317778 -0.462655 7.925744 
4.953430 7.925744 -2.546971 

-17.125082 -2.782659 12.691757 
-2.782659 -6.691402 8.985605 
12.691757 8.985605 -8.021842 

5.720977 0.748000 -2.462057 
0.748000 -1.879062 4.090565 
-2.462057 4.090565 2.396368 

3.023937 6.577926 3.609914 
6.577926 4.995804 1.523251 
3.609914 1.523251 0.058552 

4.541682 -3.186706 3.884011 
-3.186706 0.516458 9.609512 
3.884011 9.609512 -1.098234 

-11.195486 -4.027155 10.275773 
-4.027155 1.576175 3.349558 
10.275773 3.349558 -4.293476 

5.084472 2.431543 -0.995879 
2.431543 8.050154 2.263787 
-0.995879 2.263787 4.336557 

14.308535 -2.384234 1.077326 
-2.384234 9.536616 3.258729 
1.077326 3.258729 4.804113 

2.281910 -1.869677 10.268645 
-1.869677 7.780774 -2.760329 
10.268645 -2.760329 2.214411 

-9.879547 -3.888155 7.598889 
-3.888155 -10.362224 8.206411 
7.598889 8.206411 -5.275743 

10.050306 0.407705 1.291739 
0.407705 2.962121 -0.346555 
1.291739 -0.346555 4.814556 

-9.636177 -0.358012 10.191066 
-0.358012 3.848736 2.836049 
10.191066 2.836049 -4.700573 

7.403353 1.387125 -0.996298 
1.387125 4.153209 3.191933 
-0.996298 3.191933 3.827623 

7.623749 3.602900 3.789315 
3.602900 15.851792 -2.860896 
3.789315 -2.860896 4.673967 

-12.073504 1.515839 5.762049 
1.515839 -4.922919 9.524548 
5.762049 9.524548 -6.941683 

16.553176 3.239187 -3.205896 
3.239187 10.057296 4.074278 
-3.205896 4.074278 7.088405 

2.759077 -1.513381 8.995780 
-1.513381 3.422741 2.229046 
8.995780 2.229046 -1.637492 

-12.349687 -8.577744 11.425943 
-8.577744 1.900899 4.790145 
11.425943 4.790145 -2.923802 

-0.137295 -0.131607 -0.752106 
-0.131607 -0.049716 -0.363993 
-0.752106 -0.363993 1.838949 

-0.778348 -0.220184 0.442421 
-0.220184 0.061889 0.245852 
0.442421 0.245852 -0.416883 

1.214694 0.234373 0.276260 
0.234373 0.451299 0.444643 
0.276260 0.444643 0.213421 

5.885103 4.369508 0.099216 
4.369508 1.539127 -0.626318 
0.099216 -0.626318 1.210554 

-3.586581 -0.389869 3.511660 
-0.389869 -0.804431 6.260089 
3.511660 6.260089 -1.210015 

11.122783 4.472266 -1.024504 
4.472266 11.733862 0.372998 
-1.024504 0.372998 5.026678 

5.924038 4.370437 4.860182 
4.370437 -0.474426 1.811272 
4.860182 1.811272 0.826808 

-8.762612 0.402657 9.869316 
0.402657 -12.556541 8.017854 
9.869316 8.017854 -5.605226 

-9.077629 -4.878224 5.231160 
-4.878224 -11.819239 9.692269 
5.231160 9.692269 -3.801903 

10.496090 1.351553 1.249609 
1.351553 8.123519 -1.248182 
1.249609 -1.248182 5.220118 

-5.861686 2.679422 9.376330 
2.679422 3.849339 4.335955 
9.376330 4.335955 -3.372066 

-4.675110 2.569801 1.667348 
2.569801 -7.218215 7.427311 
1.667348 7.427311 -0.835225 

4.363907 0.373844 0.560410 
0.373844 6.204157 7.252087 
0.560410 7.252087 1.254447 

-7.260383 2.478786 4.520596 
2.478786 -11.819904 7.640718 
4.520596 7.640718 -5.814825 

-5.242595 2.649963 1.458826 
2.649963 -9.017065 9.750777 
1.458826 9.750777 -3.991675 

1.125674 0.037405 0.367714 
0.037405 0.358944 5.283276 
0.367714 5.283276 -1.139359 

3.948443 1.551616 2.155577 
1.551616 13.408199 -0.583487 
2.155577 -0.583487 4.919681 

10.454165 8.587967 -0.687645 
8.587967 5.209277 -0.585268 
-0.687645 -0.585268 3.676035 

-6.651182 -5.486913 8.025762 
-5.486913 -13.462118 12.196702 
8.025762 12.196702 -8.691762 

-4.686284 0.277588 7.051260 
0.277588 0.757186 1.574780 
7.051260 1.574780 -0.064231 

6.996206 1.536993 0.775765 
1.536993 1.495349 8.850181 
0.775765 8.850181 0.178251 

0.100889 1.087721 8.246420 
1.087721 -10.871624 7.962968 
8.246420 7.962968 -3.796414 

-12.102953 -3.103880 11.582874 
-3.103880 -9.116189 9.109994 
11.582874 9.109994 -7.262586 

-14.469012 1.089359 3.468545 
1.089359 -12.254216 6.698067 
3.468545 6.698067 -5.543264 

3.501185 -1.606557 -3.354553 
-1.606557 4.616972 9.124107 
-3.354553 9.124107 1.692713 

-1.477750 0.118028 0.906792 
0.118028 -1.045722 -1.408834 
0.906792 -1.408834 -0.931069 

-0.508530 0.115240 0.198827 
0.115240 0.395759 0.725998 
0.198827 0.725998 0.810895 

0.726971 -0.156263 0.404883 
-0.156263 0.136816 0.592579 
0.404883 0.592579 0.185643 

12.611857 4.547001 -0.477464 
4.547001 5.654612 -0.920962 
-0.477464 -0.920962 4.169911 

3.258944 -3.141211 7.263626 
-3.141211 -2.834025 6.294762 
7.263626 6.294762 -2.405059 

0.888286 -4.529838 8.328106 
-4.529838 1.839590 6.670696 
8.328106 6.670696 -2.088484 

-4.670950 0.580968 7.935797 
0.580968 -4.713136 0.888158 
7.935797 0.888158 -2.482700 

1.839381 1.577517 3.836854 
1.577517 7.307525 0.301093 
3.836854 0.301093 3.698411 

-4.446854 1.999892 3.625180 
1.999892 -1.556304 1.178715 
3.625180 1.178715 1.220661 

13.184782 4.847990 -1.257187 
4.847990 8.353434 1.911957 
-1.257187 1.911957 4.694610 

-9.463747 -6.100237 10.621276 
-6.100237 -11.836194 11.528615 
10.621276 11.528615 -9.922412 

-0.744493 2.273986 5.285834 
2.273986 0.525737 0.605322 
5.285834 0.605322 2.449372 

2.035836 -4.188735 3.166465 
-4.188735 0.540901 10.057440 
3.166465 10.057440 -0.340629 

10.082819 0.453517 4.172289 
0.453517 10.662810 -1.223772 
4.172289 -1.223772 5.151342 

-2.527881 -1.459024 9.622382 
-1.459024 2.277987 1.117474 
9.622382 1.117474 0.489036 

6.966498 2.598814 3.309618 
2.598814 9.467421 2.324720 
3.309618 2.324720 4.915309 

-0.494686 -5.323379 6.867348 
-5.323379 -3.275916 10.418085 
6.867348 10.418085 -5.345661 

-9.193795 -1.738167 10.021310 
-1.738167 2.341691 -0.176091 
10.021310 -0.176091 -2.582448 

5.981354 1.662346 -0.492816 
1.662346 9.369194 0.308293 
-0.492816 0.308293 7.007380 

7.411824 1.353393 0.971572 
1.353393 6.159978 2.715503 
0.971572 2.715503 2.030937 

3.869090 -4.380850 5.197622 
-4.380850 4.138241 4.319369 
5.197622 4.319369 1.392753 

1.011229 1.973089 6.202344 
1.973089 12.426587 -2.442837 
6.202344 -2.442837 3.750767 

-3.029731 -0.872221 2.237782 
-0.872221 -4.966139 5.809326 
2.237782 5.809326 0.612672 

11.771712 2.886661 0.729983 
2.886661 7.383575 -0.714295 
0.729983 -0.714295 5.649844 

-21.445738 -8.754044 12.921809 
-8.754044 -17.150158 11.760244 
12.921809 11.760244 -12.293705 

0.899331 0.375869 -0.594634 
0.375869 3.087816 -1.733060 
-0.594634 -1.733060 3.120875 

-1.638328 0.308512 0.416405 
0.308512 -1.302117 0.930939 
0.416405 0.930939 -0.886061 

0.533518 0.205672 0.130990 
0.205672 -0.051744 0.304185 
0.130990 0.304185 -0.665565 

-1.935301 3.095770 0.873710 
3.095770 0.140942 -0.426231 
0.873710 -0.426231 -0.334789 

10.445069 7.371940 -3.396490 
7.371940 1.617671 3.787573 
-3.396490 3.787573 3.442215 

2.533390 -6.089990 3.471098 
-6.089990 -8.358234 9.165236 
3.471098 9.165236 -3.539965 

1.272367 3.861578 6.676653 
3.861578 2.067805 -1.442390 
6.676653 -1.442390 0.252168 

0.812721 -1.853370 6.136099 
-1.853370 4.545015 5.904194 
6.136099 5.904194 -0.285330 

0.159370 -1.184917 6.308593 
-1.184917 10.003628 -0.085021 
6.308593 -0.085021 1.452367 

-3.520010 2.335443 4.278175 
2.335443 4.436264 4.150540 
4.278175 4.150540 0.528586 

1.490651 0.175008 -0.527279 
0.175008 -4.153201 4.145832 
-0.527279 4.145832 1.641688 

7.127779 5.110481 1.071214 
5.110481 8.807538 1.028086 
1.071214 1.028086 2.877814 

-3.327025 0.853740 4.008628 
0.853740 -12.401274 9.869468 
4.008628 9.869468 -4.484579 

-4.252879 0.841683 4.504695 
0.841683 -3.555987 6.628832 
4.504695 6.628832 -3.543258 

5.339271 5.180022 1.892873 
5.180022 9.465044 3.339328 
1.892873 3.339328 2.695945 

-9.960346 -3.632850 5.984786 
-3.632850 -15.707162 10.630437 
5.984786 10.630437 -8.125660 

1.778071 0.865620 2.106337 
0.865620 1.689790 5.033736 
2.106337 5.033736 2.061472 

-4.561593 1.000151 3.991710 
1.000151 -0.109616 4.370060 
3.991710 4.370060 -2.489580 

2.029816 1.279057 1.454362 
1.279057 3.860567 5.341148 
1.454362 5.341148 0.371545 

-4.377140 1.130741 3.039696 
1.130741 -7.467799 6.882309 
3.039696 6.882309 -3.395628 

5.969822 4.539986 -0.304285 
4.539986 -0.749603 6.826009 
-0.304285 6.826009 0.023612 

-3.940566 0.043418 5.555434 
0.043418 -2.177578 9.000216 
5.555434 9.000216 -5.895044 

-1.866873 3.170758 4.476427 
3.170758 9.476271 0.066645 
4.476427 0.066645 2.573499 

1.983070 3.817104 -0.322026 
3.817104 3.181551 2.908338 
-0.322026 2.908338 0.832611 

0.326244 -1.555087 1.657326 
-1.555087 5.702831 2.943752 
1.657326 2.943752 2.179242 

-2.142985 -0.917516 0.547726 
-0.917516 -2.484980 0.216790 
0.547726 0.216790 -0.762943 

-0.889187 -0.615147 0.216931 
-0.615147 0.384529 0.058003 
0.216931 0.058003 0.476118 

0.652352 0.453386 0.525791 
0.453386 0.484187 0.126178 
0.525791 0.126178 0.524708 

13.963813 2.221972 -0.797908 
2.221972 4.532159 0.090585 
-0.797908 0.090585 3.548733 

-10.780422 -2.128989 11.610581 
-2.128989 -4.579091 2.161765 
11.610581 2.161765 -5.387043 

16.481064 3.110359 -2.143785 
3.110359 8.248741 0.997142 
-2.143785 0.997142 8.973544 

-0.992319 -1.250111 9.554283 
-1.250111 2.984550 0.333207 
9.554283 0.333207 -2.858393 

-7.692996 0.295121 6.541980 
0.295121 -1.937618 8.454427 
6.541980 8.454427 -1.657030 

5.257035 1.659668 -0.423102 
1.659668 -3.932236 8.391280 
-0.423102 8.391280 -1.427467 

-8.527711 -1.126801 8.392859 
-1.126801 -0.502625 7.553369 
8.392859 7.553369 -4.930905 

12.011866 2.992125 0.492522 
2.992125 15.440358 -1.679027 
0.492522 -1.679027 8.297929 

-1.621463 -2.386798 6.850776 
-2.386798 -8.768914 9.630848 
6.850776 9.630848 -5.646509 

2.639262 -1.152476 6.694574 
-1.152476 0.939314 -0.090604 
6.694574 -0.090604 2.687986 

7.991159 -0.110217 5.443881 
-0.110217 8.654097 2.693109 
5.443881 2.693109 3.746201 

-18.979867 -9.842279 12.953216 
-9.842279 -8.129928 10.886870 
12.953216 10.886870 -9.418136 

12.743300 7.013026 -3.360147 
7.013026 4.246256 -0.905527 
-3.360147 -0.905527 7.735239 

-3.125384 -1.638299 7.467017 
-1.638299 0.972270 5.818053 
7.467017 5.818053 -3.108113 

-6.307133 3.029087 3.790550 
3.029087 -10.109219 5.837660 
3.790550 5.837660 -3.358892 

-1.122536 0.270725 2.137368 
0.270725 -0.784417 7.274664 
2.137368 7.274664 0.042376 

14.421502 0.496385 0.875270 
0.496385 13.093136 0.093293 
0.875270 0.093293 7.139344 

2.650604 2.386157 9.059093 
2.386157 -5.239637 4.851660 
9.059093 4.851660 -1.907147 

-6.221815 -1.350664 10.361326 
-1.350664 -15.237003 9.112853 
10.361326 9.112853 -5.284342 

-3.214173 -3.191079 8.011460 
-3.191079 0.758934 8.819502 
8.011460 8.819502 -3.471471 

-10.779322 2.782825 7.654214 
2.782825 -12.320121 5.235362 
7.654214 5.235362 -5.363378 

-6.092306 -3.839982 3.342873 
-3.839982 1.120939 8.368128 
3.342873 8.368128 -1.507032 

0.036542 0.330886 0.002159 
0.330886 0.554577 -1.324283 
0.002159 -1.324283 0.919065 

-0.595237 0.246042 0.380407 
0.246042 -0.691639 0.772790 
0.380407 0.772790 0.031461 

1.267191 0.069877 0.299124 
0.069877 -0.148725 0.355218 
0.299124 0.355218 -0.375260 

6.360741 2.174010 0.459619 
2.174010 2.779563 -0.419432 
0.459619 -0.419432 2.076653 

7.612993 2.576463 2.240782 
2.576463 2.849977 3.190898 
2.240782 3.190898 1.196190 

-11.928011 -2.368745 9.790500 
-2.368745 -0.438220 1.990260 
9.790500 1.990260 -4.173597 

8.010195 6.555856 -3.210342 
6.555856 0.501916 3.977679 
-3.210342 3.977679 3.261476 

3.528792 0.133341 4.334939 
0.133341 4.884789 6.281787 
4.334939 6.281787 0.298250 

5.947391 4.587189 4.056122 
4.587189 -2.673050 2.366100 
4.056122 2.366100 1.659312 

-19.358351 -2.207793 11.640526 
-2.207793 -14.536150 10.898867 
11.640526 10.898867 -10.020761 

8.233702 1.204982 -1.755743 
1.204982 6.545519 7.092845 
-1.755743 7.092845 3.195380 

-8.045615 -0.806212 6.702016 
-0.806212 -5.689560 1.987682 
6.702016 1.987682 -3.268775 

2.266965 6.598696 -0.460714 
6.598696 4.592854 0.570303 
-0.460714 0.570303 1.797387 

-6.586829 1.333709 2.231423 
1.333709 0.355713 8.093606 
2.231423 8.093606 -2.862128 

18.805464 -0.951492 -4.195385 
-0.951492 9.901362 6.711323 
-4.195385 6.711323 7.385877 

-10.177537 -0.809797 11.960300 
-0.809797 -6.887895 -1.214060 
11.960300 -1.214060 -6.484561 

6.522184 -3.862605 0.555087 
-3.862605 0.853027 8.568653 
0.555087 8.568653 2.394543 

0.517630 4.228724 6.483436 
4.228724 -3.978677 -0.428405 
6.483436 -0.428405 -1.443696 

-10.034908 -1.868974 8.116474 
-1.868974 -1.169183 5.449360 
8.116474 5.449360 -1.965978 

12.030187 0.472371 -2.363619 
0.472371 3.555885 7.549093 
-2.363619 7.549093 3.271208 

-5.322762 -3.090581 9.258372 
-3.090581 -0.485112 1.113862 
9.258372 1.113862 -3.218016 

6.707884 3.389060 2.113727 
3.389060 9.132315 -2.332871 
2.113727 -2.332871 7.105417 

-1.480306 -7.268684 3.854963 
-7.268684 -13.865991 11.082055 
3.854963 11.082055 -4.664515 

-0.013177 3.579307 7.087597 
3.579307 10.510644 -3.433450 
7.087597 -3.433450 2.427270 

-8.580803 -7.034385 4.829441 
-7.034385 -1.041733 8.944037 
4.829441 8.944037 -2.232807 

-0.884721 0.254103 -0.007565 
0.254103 -1.105558 -1.113379 
-0.007565 -1.113379 0.340628 

-0.506584 0.065998 0.381032 
0.065998 0.126147 0.544524 
0.381032 0.544524 0.313684 

1.195597 0.114520 0.590233 
0.114520 0.806276 0.144775 
0.590233 0.144775 0.602818 

14.183277 2.244530 -0.549158 
2.244530 4.654726 -0.014338 
-0.549158 -0.014338 3.620022 

-8.044445 -2.482947 11.472330 
-2.482947 2.485049 2.436643 
11.472330 2.436643 -3.745894 

11.122398 -1.578812 -0.721425 
-1.578812 4.383007 4.492059 
-0.721425 4.492059 4.759924 

6.222416 2.208649 7.884325 
2.208649 12.590298 -1.606914 
7.884325 -1.606914 2.685085 

-3.263485 -5.495336 7.613407 
-5.495336 -9.491419 11.952102 
7.613407 11.952102 -4.412294 

-3.976245 -1.834260 8.257153 
-1.834260 0.766220 -0.758657 
8.257153 -0.758657 0.145296 

12.424774 -0.388361 1.330601 
-0.388361 6.420847 3.148853 
1.330601 3.148853 6.178882 

-16.525257 -7.083075 13.135296 
-7.083075 -20.369110 10.589102 
13.135296 10.589102 -12.026136 

4.488046 3.436742 2.228103 
3.436742 5.212227 0.344324 
2.228103 0.344324 3.548895 

-8.335059 2.853069 6.953642 
2.853069 -9.654469 4.522862 
6.953642 4.522862 -4.786399 

7.355355 1.881053 1.181969 
1.881053 1.814641 8.017473 
1.181969 8.017473 1.855304 

-17.977299 -4.457059 10.393504 
-4.457059 -10.070434 9.935018 
10.393504 9.935018 -9.736948 

6.662589 9.734257 -3.231025 
9.734257 4.093180 -1.645569 
-3.231025 -1.645569 4.774071 

9.542579 -0.711679 0.698801 
-0.711679 -1.603323 6.385809 
0.698801 6.385809 1.074112 

-11.177470 2.557924 11.334152 
2.557924 -0.430549 -2.648950 
11.334152 -2.648950 -3.471332 

10.205117 2.196111 -2.896516 
2.196111 -4.084779 8.370110 
-2.896516 8.370110 2.933465 

-8.621291 -1.006492 9.634857 
-1.006492 -3.950661 4.614045 
9.634857 4.614045 -5.439264 

-3.612843 3.907509 1.753881 
3.907509 1.179962 3.169352 
1.753881 3.169352 0.447910 

1.704162 3.676482 -0.426944 
3.676482 3.521553 3.668068 
-0.426944 3.668068 1.130181 

15.543300 5.155219 -0.844225 
5.155219 13.936977 -1.990168 
-0.844225 -1.990168 7.811873 

-13.513954 -1.443022 10.944706 
-1.443022 -3.385924 7.669880 
10.944706 7.669880 -8.804837 

-4.912405 -2.233557 -0.857627 
-2.233557 -11.955860 10.351842 
-0.857627 10.351842 -1.414470 

-0.700732 0.564381 0.831266 
0.564381 1.496586 -1.683233 
0.831266 -1.683233 -0.011769 

-1.217682 0.430360 0.265753 
0.430360 -0.721278 0.824694 
0.265753 0.824694 0.503449 

1.230474 -0.187629 0.202212 
-0.187629 0.251108 0.624212 
0.202212 0.624212 -0.410096 

1.690897 4.569963 0.704332 
4.569963 1.443876 -1.193543 
0.704332 -1.193543 0.534276 

2.209178 2.221926 0.514692 
2.221926 3.118051 7.181485 
0.514692 7.181485 -0.177330 

5.980742 1.950568 1.816372 
1.950568 6.464186 2.234740 
1.816372 2.234740 2.645686 

-6.660215 -2.967610 4.530949 
-2.967610 -13.056185 11.706509 
4.530949 11.706509 -8.229792 

-3.371956 -2.981396 4.106519 
-2.981396 4.393785 1.359304 
4.106519 1.359304 1.422945 

2.027254 3.426390 -0.236619 
3.426390 9.683096 0.331846 
-0.236619 0.331846 3.135198 

8.507026 0.727359 -1.191566 
0.727359 7.529229 4.530596 
-1.191566 4.530596 3.082983 

10.064273 0.151167 1.878696 
0.151167 3.388548 0.066476 
1.878696 0.066476 3.786838 

-10.885151 -4.463905 10.208902 
-4.463905 -8.490852 4.290936 
10.208902 4.290936 -6.435734 

9.683765 2.597710 1.374763 
2.597710 11.033993 -2.022897 
1.374763 -2.022897 7.030264 

-1.421771 0.329898 6.749354 
0.329898 -8.502286 8.232106 
6.749354 8.232106 -2.920599 

3.940531 -5.148722 5.766775 
-5.148722 -6.718276 7.515817 
5.766775 7.515817 -0.392171 

-1.125199 -5.717988 11.117141 
-5.717988 1.858591 -0.524160 
11.117141 -0.524160 -1.348475 

-2.532147 0.131539 6.537203 
0.131539 -1.183884 1.338870 
6.537203 1.338870 0.377410 

8.218413 0.588276 3.106550 
0.588276 13.676339 0.520343 
3.106550 0.520343 4.426174 

5.651715 -0.075773 7.120043 
-0.075773 9.654866 -1.281955 
7.120043 -1.281955 4.448410 

1.337496 -3.009392 6.398592 
-3.009392 -8.897057 6.994975 
6.398592 6.994975 -2.249385 

4.582880 -3.569485 8.817170 
-3.569485 5.183184 3.147680 
8.817170 3.147680 0.270932 

-7.090445 -4.737600 11.239096 
-4.737600 -0.980908 4.393654 
11.239096 4.393654 -3.019366 

-3.138950 3.014369 3.842087 
3.014369 2.241993 5.423919 
3.842087 5.423919 -0.496385 

8.375267 -2.663737 0.390094 
-2.663737 -0.109029 8.330062 
0.390094 8.330062 1.313908 

-9.364477 -0.734424 10.235023 
-0.734424 0.395741 -2.113394 
10.235023 -2.113394 -1.849961 

-1.109545 -0.723634 -0.112458 
-0.723634 -0.009179 0.685055 
-0.112458 0.685055 1.602422 

-1.703027 -0.464440 0.430446 
-0.464440 -0.180133 -0.138585 
0.430446 -0.138585 -0.204196 

0.461347 0.004909 0.543972 
0.004909 0.228641 0.550937 
0.543972 0.550937 0.247253 

12.977365 5.174164 -0.768402 
5.174164 5.504038 -1.039273 
-0.768402 -1.039273 3.557015 

-15.894051 1.097740 11.483460 
1.097740 -12.568474 9.143953 
11.483460 9.143953 -9.618357 

1.766453 -1.525172 -0.651354 
-1.525172 -5.441379 7.691008 
-0.651354 7.691008 0.518156 

-2.187385 1.100992 4.308120 
1.100992 2.396994 -0.012459 
4.308120 -0.012459 1.809953 

0.659925 2.092266 -0.769828 
2.092266 -8.907668 7.954534 
-0.769828 7.954534 -2.561950 

3.447233 3.365146 2.984525 
3.365146 2.558254 6.882118 
2.984525 6.882118 -1.542976 

-13.036677 -1.807030 6.972618 
-1.807030 -17.508230 10.939221 
6.972618 10.939221 -8.474792 

6.056306 0.277896 0.997670 
0.277896 10.312920 0.589690 
0.997670 0.589690 4.013201 

-4.785050 0.325321 3.838329 
0.325321 -1.493163 1.189158 
3.838329 1.189158 -1.386805 

9.022753 3.870726 -1.701702 
3.870726 3.313289 4.109671 
-1.701702 4.109671 2.308064 

2.064363 -1.903484 5.607763 
-1.903484 9.083885 0.631376 
5.607763 0.631376 1.536998 

-2.466027 -1.843415 3.666152 
-1.843415 6.375541 -0.494758 
3.666152 -0.494758 2.901913 

13.901254 2.838941 -2.956041 
2.838941 7.468589 2.269151 
-2.956041 2.269151 5.074102 

-0.096235 1.983428 7.526386 
1.983428 -1.156485 0.881369 
7.526386 0.881369 -2.346041 

-12.733237 -0.953412 7.611386 
-0.953412 -10.190390 11.529426 
7.611386 11.529426 -7.741762 

-2.028277 -3.622842 1.378343 
-3.622842 -0.776369 6.208787 
1.378343 6.208787 -1.412962 

2.002924 8.004662 0.803846 
8.004662 4.601861 -1.948164 
0.803846 -1.948164 2.297642 

-10.516951 0.438545 0.934295 
0.438545 -15.521467 10.267807 
0.934295 10.267807 -6.277083 

10.422232 4.180018 -3.011526 
4.180018 4.060377 4.906926 
-3.011526 4.906926 2.826582 

2.285313 -2.560553 5.875358 
-2.560553 3.010094 6.038686 
5.875358 6.038686 -0.303276 

2.807045 0.386739 5.053621 
0.386739 -3.006421 4.414456 
5.053621 4.414456 0.204523 

-11.816000 -5.639795 9.907316 
-5.639795 1.724726 3.520314 
9.907316 3.520314 -5.218961 

-0.627927 -0.346867 -0.396560 
-0.346867 -0.960460 -0.089839 
-0.396560 -0.089839 1.898854 

-0.868782 -0.448952 0.619303 
-0.448952 0.189122 0.157447 
0.619303 0.157447 -0.118699 

0.707687 0.117048 0.459402 
0.117048 -0.266177 0.383226 
0.459402 0.383226 -0.060454 

10.492358 3.186664 -0.261597 
3.186664 4.506883 -0.480298 
-0.261597 -0.480298 2.819988 

-7.296037 0.360292 7.414621 
0.360292 -7.678239 4.398534 
7.414621 4.398534 -4.006035 

-1.017349 1.091889 2.071003 
1.091889 6.972734 -0.461534 
2.071003 -0.461534 3.926185 

9.143700 3.234234 -1.568272 
3.234234 10.045453 2.645381 
-1.568272 2.645381 4.264098 

9.954400 5.668847 2.451829 
5.668847 6.358425 -1.334932 
2.451829 -1.334932 4.400516 

-3.583793 -4.233915 8.251441 
-4.233915 -7.759047 9.554761 
8.251441 9.554761 -4.345791 

-3.710930 0.502631 6.795440 
0.502631 4.922054 -2.670479 
6.795440 -2.670479 2.443626 

-2.522847 0.094228 1.011075 
0.094228 -0.742284 7.426910 
1.011075 7.426910 -0.568288 

13.843308 6.198033 -1.364340 
6.198033 4.245052 1.518900 
-1.364340 1.518900 3.657052 

-11.798080 2.189366 12.152033 
2.189366 -8.553218 4.098117 
12.152033 4.098117 -6.978579 

-9.872238 -0.701969 1.951593 
-0.701969 -10.763062 10.929542 
1.951593 10.929542 -4.379585 

12.005354 2.632057 -2.089725 
2.632057 4.371608 5.349127 
-2.089725 5.349127 2.746665 

-6.775438 -3.304416 8.832916 
-3.304416 -2.661384 3.768521 
8.832916 3.768521 -4.445273 

8.489401 3.097062 1.099468 
3.097062 12.396063 -0.423225 
1.099468 -0.423225 5.230664 

-7.241343 1.479172 6.530764 
1.479172 -4.668515 3.960490 
6.530764 3.960490 -1.770791 

11.692550 0.670713 -0.914210 
0.670713 3.416380 4.510913 
-0.914210 4.510913 4.691439 

-12.843496 -1.694969 11.150348 
-1.694969 -12.419116 3.419853 
11.150348 3.419853 -8.993144 

14.427113 2.593790 1.038772 
2.593790 20.243377 -2.695823 
1.038772 -2.695823 10.658512 

-14.440922 -0.641309 10.113675 
-0.641309 -17.124792 6.720801 
10.113675 6.720801 -8.149175 

12.998733 -0.963501 -0.908150 
-0.963501 9.390408 6.823686 
-0.908150 6.823686 5.298554 

-11.738861 -0.537015 11.238551 
-0.537015 -6.743921 0.934227 
11.238551 0.934227 -6.135839 

-7.811346 -4.633466 0.912694 
-4.633466 -10.599312 10.987463 
0.912694 10.987463 -2.783094 

-0.611136 0.264049 0.680996 
0.264049 1.475803 -1.741126 
0.680996 -1.741126 0.292737 

-1.586168 0.465964 0.267173 
0.465964 -1.506646 0.891395 
0.267173 0.891395 0.080114 

1.836027 0.489251 0.420793 
0.489251 1.432008 -0.076748 
0.420793 -0.076748 0.775023 

11.773469 1.283807 -0.189552 
1.283807 2.530302 0.406559 
-0.189552 0.406559 2.643520 

-3.703023 1.072003 8.982497 
1.072003 5.505216 0.151651 
8.982497 0.151651 -1.433261 

10.813727 1.903081 0.482494 
1.903081 5.718799 5.121019 
0.482494 5.121019 3.731515 

-4.277243 -6.270890 10.541510 
-6.270890 -1.925199 8.097809 
10.541510 8.097809 -5.830365 

2.427919 -1.879908 5.681777 
-1.879908 4.897323 1.657970 
5.681777 1.657970 1.147486 

-4.005766 -3.181628 6.320249 
-3.181628 -0.615727 3.320593 
6.320249 3.320593 -0.325719 

6.313735 1.771693 0.824734 
1.771693 0.003708 3.897438 
0.824734 3.897438 0.985344 

6.143928 -3.480548 6.168120 
-3.480548 -0.437525 5.297053 
6.168120 5.297053 -0.211111 

-4.056201 -4.185921 11.095638 
-4.185921 2.114748 0.299947 
11.095638 0.299947 -1.850878 

0.033513 0.609451 4.231797 
0.609451 5.624744 1.101155 
4.231797 1.101155 2.669921 

10.083818 2.793116 1.680067 
2.793116 9.420327 0.309689 
1.680067 0.309689 6.099778 

-4.968277 -1.675146 8.788084 
-1.675146 4.405266 3.535899 
8.788084 3.535899 -1.647238 

7.507205 0.447706 1.313808 
0.447706 9.531107 2.458170 
1.313808 2.458170 5.277641 

-1.590238 -2.612298 5.176961 
-2.612298 -8.659854 8.165728 
5.176961 8.165728 -5.213509 

3.341561 0.699687 5.674242 
0.699687 8.014697 1.594311 
5.674242 1.594311 2.212685 

2.425987 -1.794463 4.808770 
-1.794463 2.226007 3.343216 
4.808770 3.343216 0.813775 

-7.268740 7.591163 6.357563 
7.591163 -2.063597 -2.239791 
6.357563 -2.239791 -1.799839 

-4.043473 -3.827806 0.901218 
-3.827806 -1.699965 12.407976 
0.901218 12.407976 -3.020794 

15.008963 5.506338 -0.250798 
5.506338 17.928121 -4.109425 
-0.250798 -4.109425 7.956970 

-18.071966 -2.976598 9.596651 
-2.976598 -21.181512 13.885880 
9.596651 13.885880 -11.963389 

4.861456 2.147362 -0.026338 
2.147362 5.538109 0.607877 
-0.026338 0.607877 3.539711 

-1.399867 0.752076 4.383943 
0.752076 9.169868 -0.433146 
4.383943 -0.433146 2.381345 

-1.676981 -0.267501 0.110178 
-0.267501 -2.909847 0.539189 
0.110178 0.539189 -0.216508 

-0.163923 -0.448404 0.426699 
-0.448404 1.045939 -0.134714 
0.426699 -0.134714 0.779634 

0.347328 -0.570772 0.415758 
-0.570772 -0.967946 0.820690 
0.415758 0.820690 -0.599010 

8.964888 4.678799 -0.061794 
4.678799 6.279241 -1.657495 
-0.061794 -1.657495 3.461701 

-5.023298 0.592527 5.277556 
0.592527 -10.903813 8.867176 
5.277556 8.867176 -6.472832 

-7.189042 0.612534 4.970992 
0.612534 -2.628900 5.478691 
4.970992 5.478691 -2.382035 

-2.037871 2.646002 -1.466506 
2.646002 -7.085528 8.727666 
-1.466506 8.727666 -1.225968 

-5.058546 1.698096 0.270179 
1.698096 -6.744444 5.480053 
0.270179 5.480053 -3.012129 

9.802743 4.236525 -2.377601 
4.236525 6.037770 3.802694 
-2.377601 3.802694 3.944135 

-1.092786 0.398013 5.032431 
0.398013 -3.362522 2.337227 
5.032431 2.337227 -1.588116 

-3.033442 -1.908456 3.927649 
-1.908456 -2.469705 4.158024 
3.927649 4.158024 -0.372246 

6.788162 -0.590757 0.820316 
-0.590757 4.770737 3.500759 
0.820316 3.500759 2.081285 

1.052885 0.549857 5.627460 
0.549857 -3.690839 5.799699 
5.627460 5.799699 -2.462908 

-3.250915 -1.509477 7.236509 
-1.509477 0.333654 5.747568 
7.236509 5.747568 -2.693701 

-14.559455 2.639852 4.289983 
2.639852 -16.214451 11.296614 
4.289983 11.296614 -7.842680 

4.862332 0.393733 -1.089328 
0.393733 5.788975 6.693472 
-1.089328 6.693472 2.179113 

10.094017 4.432650 1.247729 
4.432650 6.799056 -0.279113 
1.247729 -0.279113 4.296231 

-1.151308 -3.549702 7.113724 
-3.549702 -0.881122 8.531092 
7.113724 8.531092 -3.707443 

2.417649 -1.291080 5.073951 
-1.291080 -4.257126 5.130444 
5.073951 5.130444 -0.762724 

-1.136774 -0.263753 8.694044 
-0.263753 5.762720 -1.365880 
8.694044 -1.365880 0.183544 

-4.695146 0.218864 5.644038 
0.218864 -0.618907 6.774717 
5.644038 6.774717 0.789389 

4.002335 -1.058250 0.554909 
-1.058250 -8.096016 10.031156 
0.554909 10.031156 -2.636688 

5.633372 -1.191846 6.768056 
-1.191846 10.206429 -1.034433 
6.768056 -1.034433 4.233964 

-0.887652 0.333554 6.376262 
0.333554 -5.377705 4.156603 
6.376262 4.156603 -2.230843 

-19.723715 -3.836330 9.548929 
-3.836330 -17.025137 11.961949 
9.548929 11.961949 -11.637693 

0.777185 0.871388 -0.090371 
0.871388 3.623185 -2.046343 
-0.090371 -2.046343 3.027890 

-1.783017 0.698832 0.502446 
0.698832 -1.331505 0.993075 
0.502446 0.993075 -0.506761 

1.357510 0.741681 0.338594 
0.741681 1.585480 -0.295065 
0.338594 -0.295065 0.426713 

4.898807 1.096343 0.183654 
1.096343 -0.601158 0.810594 
0.183654 0.810594 0.424152 

5.004394 3.838888 3.737513 
3.838888 13.206434 -1.406929 
3.737513 -1.406929 4.680890 

6.693073 1.637242 0.990489 
1.637242 -6.432751 6.546491 
0.990489 6.546491 0.712014 

-2.031734 -1.759768 9.132353 
-1.759768 4.784786 0.961646 
9.132353 0.961646 0.579452 

13.404997 -0.370850 2.487860 
-0.370850 12.319307 -0.152900 
2.487860 -0.152900 7.412869 

-9.099535 -8.097859 12.650611 
-8.097859 -0.063446 5.257024 
12.650611 5.257024 -5.657516 

-3.745230 2.190554 2.091403 
2.190554 0.958790 -0.202080 
2.091403 -0.202080 1.360448 

4.782807 5.101643 -0.576806 
5.101643 12.048175 1.057195 
-0.576806 1.057195 4.560040 

6.371795 1.736207 -0.825726 
1.736207 -1.200151 5.209199 
-0.825726 5.209199 0.530740 

-2.528926 1.805193 5.452965 
1.805193 8.856323 0.656337 
5.452965 0.656337 1.072940 

14.205685 -0.214403 -2.286900 
-0.214403 2.994114 6.343899 
-2.286900 6.343899 4.915385 

6.806959 -1.238503 8.982310 
-1.238503 13.048132 -1.994778 
8.982310 -1.994778 3.808192 

-13.879442 -5.898047 9.340675 
-5.898047 -20.671893 12.022646 
9.340675 12.022646 -8.727046 

-3.260613 3.096675 3.953735 
3.096675 -1.406922 3.185221 
3.953735 3.185221 -0.839072 

6.699514 -3.019062 0.656953 
-3.019062 -5.253603 8.702887 
0.656953 8.702887 0.371852 

-11.375365 -1.667365 9.753523 
-1.667365 -3.815237 -0.091366 
9.753523 -0.091366 -4.068704 

8.556582 1.558814 -1.060438 
1.558814 11.809443 2.353848 
-1.060438 2.353848 5.574858 

4.293684 0.187922 2.768188 
0.187922 -1.003627 6.389971 
2.768188 6.389971 -0.475896 

-1.065875 1.259590 6.843525 
1.259590 9.438507 -2.253263 
6.843525 -2.253263 3.386736 

-0.382488 -0.137927 0.742885 
-0.137927 -2.512328 8.536755 
0.742885 8.536755 -1.400267 

8.083498 2.828996 1.301398 
2.828996 1.589880 0.494854 
1.301398 0.494854 2.078055 

-7.948762 -2.015792 9.390236 
-2.015792 4.203079 0.734165 
9.390236 0.734165 -0.776307 

-2.023527 -0.829255 0.073101 
-0.829255 -1.672926 0.456863 
0.073101 0.456863 0.886548 

-1.529962 -0.597968 0.463717 
-0.597968 0.593893 -0.089368 
0.463717 -0.089368 0.169240 

0.647995 -0.523074 0.332055 
-0.523074 -0.975211 1.000440 
0.332055 1.000440 -0.614298 

9.993195 5.571687 0.002573 
5.571687 6.333179 -2.187546 
0.002573 -2.187546 4.112952 

0.399719 -2.559636 5.050235 
-2.559636 -10.688052 11.236693 
5.050235 11.236693 -6.324161 

3.329568 1.236752 7.550046 
1.236752 14.250562 -3.334614 
7.550046 -3.334614 4.017557 

-8.936270 -1.053476 5.093542 
-1.053476 -0.738409 7.014456 
5.093542 7.014456 -3.199630 

-2.314925 5.595659 -0.941362 
5.595659 1.221120 5.473318 
-0.941362 5.473318 -0.819078 

10.608845 0.962164 -3.231040 
0.962164 3.410451 8.166546 
-3.231040 8.166546 2.138197 

5.533285 1.751817 5.047982 
1.751817 5.481344 0.269878 
5.047982 0.269878 1.060769 

-2.603144 -6.399711 7.896080 
-6.399711 0.014113 9.994630 
7.896080 9.994630 -3.884137 

-2.692911 4.330361 6.296726 
4.330361 0.221615 0.469145 
6.296726 0.469145 0.583665 

-1.536143 -2.492259 2.370162 
-2.492259 -10.447386 12.148773 
2.370162 12.148773 -4.808343 

-7.905256 0.262488 7.345419 
0.262488 -0.949919 2.365043 
7.345419 2.365043 -1.834717 

-3.683729 -3.112288 -1.554702 
-3.112288 -11.017084 12.894497 
-1.554702 12.894497 -3.890555 

12.112297 1.261975 0.010363 
1.261975 13.665229 -2.833964 
0.010363 -2.833964 7.218999 

-3.169800 -3.656253 6.274858 
-3.656253 -3.662033 3.277217 
6.274858 3.277217 -2.505157 

2.432874 -0.624473 3.323414 
-0.624473 6.994506 -0.053497 
3.323414 -0.053497 3.786936 

-0.765348 1.992727 3.064772 
1.992727 5.264679 0.594080 
3.064772 0.594080 1.124081 

14.065763 -0.299199 -0.820440 
-0.299199 3.498611 8.470725 
-0.820440 8.470725 2.477586 

-9.141284 -3.836203 12.799551 
-3.836203 -4.856161 3.667280 
12.799551 3.667280 -5.686158 

5.182752 0.878961 0.875192 
0.878961 -2.064150 7.914627 
0.875192 7.914627 0.269492 

0.167321 -2.438560 7.815042 
-2.438560 -2.824811 4.387449 
7.815042 4.387449 -1.565591 

-0.819325 2.342607 6.980585 
2.342607 -1.021179 0.076992 
6.980585 0.076992 -0.497212 

-15.338933 -5.401452 8.054888 
-5.401452 -9.040801 9.979608 
8.054888 9.979608 -8.113483 

-0.013795 0.061971 -0.019486 
0.061971 1.626725 -1.486015 
-0.019486 -1.486015 2.195028 

-1.564627 0.128118 0.525886 
0.128118 -0.974416 0.839386 
0.525886 0.839386 -0.347536 

0.698644 0.346453 0.580287 
0.346453 0.306874 -0.150174 
0.580287 -0.150174 0.313185 

12.286220 1.160439 -0.487847 
1.160439 4.027575 0.491452 
-0.487847 0.491452 3.091642 

-1.431919 2.161974 8.050039 
2.161974 0.698367 -0.388486 
8.050039 -0.388486 0.135102 

-4.396631 -0.602602 3.835578 
-0.602602 -1.383095 9.357388 
3.835578 9.357388 -3.232127 

9.405043 -1.278575 1.537669 
-1.278575 3.660535 5.944262 
1.537669 5.944262 2.596933 

-1.682547 0.855228 9.082928 
0.855228 -8.783272 6.993326 
9.082928 6.993326 -4.805274 

-20.253991 1.157234 10.625369 
1.157234 -17.741904 7.759078 
10.625369 7.759078 -8.360782 

2.579729 7.530582 -1.763371 
7.530582 8.609195 2.590283 
-1.763371 2.590283 3.939752 

10.689301 0.399196 -2.058055 
0.399196 5.179385 7.756725 
-2.058055 7.756725 2.852425 

-4.179964 -1.646986 6.803226 
-1.646986 1.139476 1.907592 
6.803226 1.907592 -2.798144 

-2.794912 2.214356 2.505360 
2.214356 1.987300 0.016595 
2.505360 0.016595 3.394797 

11.949220 0.587340 -1.805250 
0.587340 9.676509 3.617078 
-1.805250 3.617078 4.601938 

-4.002855 2.003475 7.262148 
2.003475 7.175808 -1.608827 
7.262148 -1.608827 1.051001 

-0.286463 1.305861 -0.791069 
1.305861 -1.809665 7.651808 
-0.791069 7.651808 -0.541218 

2.622117 2.898092 0.199360 
2.898092 -0.856973 2.015574 
0.199360 2.015574 -0.191370 

-4.688367 1.796522 3.450969 
1.796522 1.535020 5.358261 
3.450969 5.358261 -2.091823 

6.655250 2.777943 -1.452451 
2.777943 -3.434797 5.553075 
-1.452451 5.553075 0.257864 

-12.080712 -0.879753 6.856740 
-0.879753 -8.923583 6.513019 
6.856740 6.513019 -5.321190 

14.129868 4.814032 -4.232749 
4.814032 2.287939 4.687142 
-4.232749 4.687142 5.261125 

-2.643961 -1.521608 8.531936 
-1.521608 -5.747062 3.496200 
8.531936 3.496200 -3.194326 

-1.717715 -2.475202 5.280112 
-2.475202 -2.179736 3.380849 
5.280112 3.380849 -0.357558 

1.515508 -0.603156 4.703054 
-0.603156 7.614861 -0.808661 
4.703054 -0.808661 2.097526 

-8.090955 -4.932818 5.279190 
-4.932818 -4.234011 5.157563 
5.279190 5.157563 -2.048230 

-1.171080 -0.383467 0.207653 
-0.383467 -0.811685 -0.397572 
0.207653 -0.397572 0.370905 

-1.030997 -0.303362 0.339574 
-0.303362 -0.211359 0.326333 
0.339574 0.326333 0.214821 

1.321056 0.104206 0.230248 
0.104206 0.643577 0.069199 
0.230248 0.069199 0.102327 

5.195355 1.498537 0.253372 
1.498537 0.948192 0.109249 
0.253372 0.109249 1.251308 

4.263720 1.234415 3.598669 
1.234415 12.295875 0.549123 
3.598669 0.549123 2.232810 

-6.889874 0.343730 3.529511 
0.343730 -9.660924 7.502002 
3.529511 7.502002 -2.888299 

11.725987 1.267083 -1.655089 
1.267083 -0.506744 6.572059 
-1.655089 6.572059 3.209284 

6.435844 -1.491995 6.923051 
-1.491995 4.349257 1.443605 
6.923051 1.443605 1.442857 

4.887432 -1.104857 8.279451 
-1.104857 9.298072 -1.616336 
8.279451 -1.616336 3.846870 

-2.167200 1.114664 8.569640 
1.114664 -0.748398 8.096612 
8.569640 8.096612 -2.380127 

-10.913854 -0.542156 8.492978 
-0.542156 -10.840540 9.317340 
8.492978 9.317340 -5.402414 

-2.061584 -1.602640 2.195328 
-1.602640 -3.154760 5.544470 
2.195328 5.544470 -0.767504 

4.532989 5.545935 1.903144 
5.545935 5.334924 1.613005 
1.903144 1.613005 0.944791 

-3.009057 2.465601 4.759489 
2.465601 -5.903536 9.646368 
4.759489 9.646368 -3.594869 

-1.849902 0.785267 3.549246 
0.785267 -8.764434 8.855452 
3.549246 8.855452 -4.986934 

-2.673041 -1.275340 6.443323 
-1.275340 5.322629 2.702004 
6.443323 2.702004 0.512476 

5.400484 5.114595 1.295736 
5.114595 5.557777 -0.010783 
1.295736 -0.010783 3.376164 

-2.823557 -0.351874 4.728361 
-0.351874 -1.368265 7.275820 
4.728361 7.275820 -2.527075 

1.806692 4.686113 2.642911 
4.686113 3.533248 -0.456799 
2.642911 -0.456799 2.896322 

14.615856 -1.305016 1.193954 
-1.305016 8.811349 2.612466 
1.193954 2.612466 5.468239 

-5.155960 -6.342871 12.590309 
-6.342871 2.185493 0.865300 
12.590309 0.865300 -3.042859 

2.066817 2.169940 2.661561 
2.169940 3.597045 1.166737 
2.661561 1.166737 3.212391 

-8.570211 -1.292116 4.847767 
-1.292116 -5.886868 2.272030 
4.847767 2.272030 -2.927017 

0.879708 2.381592 -0.618528 
2.381592 2.323794 4.535947 
-0.618528 4.535947 0.067471 

-1.355097 1.224009 0.836784 
1.224009 -0.105426 3.808057 
0.836784 3.808057 -0.333018 

-0.698189 -0.084420 0.489971 
-0.084420 0.131116 -0.514721 
0.489971 -0.514721 0.328557 

-0.847251 -0.017588 0.259207 
-0.017588 -0.344140 0.422685 
0.259207 0.422685 0.312122 

0.893952 -0.425126 0.061397 
-0.425126 0.211293 0.713865 
0.061397 0.713865 -0.310524 

-0.791290 5.799311 0.635948 
5.799311 0.074166 -1.710723 
0.635948 -1.710723 -0.058360 

5.660494 -1.366307 -0.877041 
-1.366307 3.820566 9.349864 
-0.877041 9.349864 0.025213 

10.067009 2.510182 1.871395 
2.510182 1.083558 1.135999 
1.871395 1.135999 2.678333 

0.824629 -1.258553 8.129972 
-1.258553 3.531916 1.749966 
8.129972 1.749966 -0.086887 

-10.393169 2.616154 6.831358 
2.616154 -4.614340 5.186489 
6.831358 5.186489 -3.923509 

9.575694 3.189863 -1.741699 
3.189863 -1.721684 6.848892 
-1.741699 6.848892 1.320267 

-5.801722 -3.376249 9.190294 
-3.376249 -9.819438 8.850357 
9.190294 8.850357 -7.036430 

-5.770270 -3.711055 6.847272 
-3.711055 0.604754 2.088442 
6.847272 2.088442 0.845202 

10.194868 1.303274 0.141996 
1.303274 6.509181 1.810663 
0.141996 1.810663 5.418477 

-2.736897 0.397275 7.768454 
0.397275 -11.865228 7.115731 
7.768454 7.115731 -5.683769 

5.431585 -4.384086 6.758011 
-4.384086 9.069182 2.968451 
6.758011 2.968451 3.631245 

-1.784872 0.927066 8.217648 
0.927066 -1.546882 0.231146 
8.217648 0.231146 1.036928 

-5.151641 -1.600121 4.783376 
-1.600121 -11.995298 10.877508 
4.783376 10.877508 -4.730744 

6.269486 0.619022 4.835158 
0.619022 5.500252 2.309301 
4.835158 2.309301 1.909797 

-2.493517 -5.811996 8.820792 
-5.811996 -10.500694 7.654498 
8.820792 7.654498 -4.792792 

-15.383217 0.826770 10.498509 
0.826770 -11.995379 3.291623 
10.498509 3.291623 -7.321322 

-2.216665 0.285182 0.390386 
0.285182 0.132233 6.243005 
0.390386 6.243005 0.587500 

12.528505 -0.759185 -1.569656 
-0.759185 4.624905 5.745070 
-1.569656 5.745070 2.256565 

-16.415197 -6.703331 11.359433 
-6.703331 -8.527930 3.089621 
11.359433 3.089621 -8.542714 

14.592706 5.735143 -2.754919 
5.735143 12.702896 -1.083244 
-2.754919 -1.083244 8.313108 

-0.806891 -1.007328 7.248769 
-1.007328 -10.827447 7.328237 
7.248769 7.328237 -5.108079 

-13.453390 -7.439042 10.741139 
-7.439042 -3.120616 3.990023 
10.741139 3.990023 -4.881174 

0.034347 -0.115943 -0.626451 
-0.115943 0.377840 -0.299055 
-0.626451 -0.299055 2.025440 

-0.866338 -0.198658 0.456558 
-0.198658 -0.220881 0.268879 
0.456558 0.268879 -0.378896 

-0.276589 -0.536949 0.276133 
-0.536949 -0.633600 0.800364 
0.276133 0.800364 -0.145852 

8.898747 5.934967 -0.508750 
5.934967 5.342201 -2.069745 
-0.508750 -2.069745 3.457468 

-0.155298 -5.290858 4.315385 
-5.290858 -13.443117 11.301164 
4.315385 11.301164 -5.200655 

-3.130832 0.646086 7.514719 
0.646086 -0.689907 0.176983 
7.514719 0.176983 -1.420903 

4.595163 -1.755820 1.756022 
-1.755820 -5.006761 7.283222 
1.756022 7.283222 -0.992613 

-10.247288 -0.630931 9.079877 
-0.630931 -14.505873 4.879040 
9.079877 4.879040 -7.094684 

4.416896 2.923701 3.194563 
2.923701 11.640405 -0.127642 
3.194563 -0.127642 5.405482 

-10.151413 1.134253 4.599600 
1.134253 -12.357181 4.719210 
4.599600 4.719210 -4.222335 

1.608341 -0.550894 -0.471343 
-0.550894 -1.375854 5.564554 
-0.471343 5.564554 0.225434 

6.609620 -1.409689 1.388723 
-1.409689 1.738938 4.332159 
1.388723 4.332159 0.284708 

-6.149842 5.551253 7.504035 
5.551253 1.772752 -2.824786 
7.504035 -2.824786 -0.617353 

-0.388216 -2.336569 -1.242179 
-2.336569 -7.521468 11.967550 
-1.242179 11.967550 -2.372732 

6.983945 1.290733 2.085169 
1.290733 8.367474 0.068215 
2.085169 0.068215 2.144181 

0.202112 0.664800 6.133359 
0.664800 7.690981 -1.084589 
6.133359 -1.084589 2.446489 

-10.031229 -0.798386 3.322487 
-0.798386 -9.244633 7.017987 
3.322487 7.017987 -3.844901 

11.356801 1.048557 -2.165631 
1.048557 5.247270 0.314811 
-2.165631 0.314811 5.406415 

-3.609139 -1.069089 7.051251 
-1.069089 2.782796 -1.069710 
7.051251 -1.069710 -0.944615 

-2.237789 1.215097 1.220202 
1.215097 -8.777753 6.211289 
1.220202 6.211289 -1.350449 

-6.124158 -2.052302 3.764517 
-2.052302 0.631701 4.973223 
3.764517 4.973223 -1.488950 

10.727904 7.001606 -3.912516 
7.001606 -0.923058 2.629311 
-3.912516 2.629311 2.905763 

-7.372946 -1.477906 6.610939 
-1.477906 -13.017362 7.442524 
6.610939 7.442524 -8.200319 

-2.876833 3.136662 4.519637 
3.136662 12.577295 -2.961783 
4.519637 -2.961783 3.421768 

1.007034 -1.719415 -2.148688 
-1.719415 0.033294 6.185478 
-2.148688 6.185478 0.890570 

-1.373782 -0.206859 0.787403 
-0.206859 -0.828161 -0.805840 
0.787403 -0.805840 -0.807545 

-0.671417 -0.079940 0.165220 
-0.079940 0.094306 0.486968 
0.165220 0.486968 0.610360 

0.195753 0.236835 0.101089 
0.236835 0.319283 -0.097781 
0.101089 -0.097781 0.217650 

3.466936 0.573154 -0.124082 
0.573154 0.780027 0.296276 
-0.124082 0.296276 0.905120 

4.838074 0.057012 1.140647 
0.057012 0.631946 -0.393848 
1.140647 -0.393848 2.703467 

-3.907776 -2.891610 3.841866 
-2.891610 -6.423199 3.079026 
3.841866 3.079026 -2.686323 

10.931228 -2.706706 0.816804 
-2.706706 1.173200 1.546167 
0.816804 1.546167 4.356503 

4.443097 -0.792337 8.345270 
-0.792337 2.052350 -2.393190 
8.345270 -2.393190 1.077578 

-18.595182 -10.444553 11.125102 
-10.444553 -23.145864 13.517745 
11.125102 13.517745 -13.895243 

-1.155178 -0.199941 3.809793 
-0.199941 2.245124 -2.271192 
3.809793 -2.271192 2.845728 

3.781348 -1.421492 1.363129 
-1.421492 -5.143771 4.957896 
1.363129 4.957896 0.465023 

-0.087216 -4.310682 5.843692 
-4.310682 -8.048536 5.474899 
5.843692 5.474899 -3.192557 

-1.457539 -3.782937 7.491525 
-3.782937 -5.774217 3.441851 
7.491525 3.441851 -3.021075 

1.199999 -2.577950 6.743247 
-2.577950 -4.621975 2.733516 
6.743247 2.733516 1.011660 

-9.857919 -3.752085 8.390034 
-3.752085 -13.687470 8.193569 
8.390034 8.193569 -7.298324 

-0.654869 -5.033160 3.477821 
-5.033160 -9.711964 8.659805 
3.477821 8.659805 -4.118627 

-6.324667 -4.991967 8.137545 
-4.991967 -6.520895 1.662248 
8.137545 1.662248 -3.187682 

-8.445870 -1.663463 4.282617 
-1.663463 -5.299191 2.034453 
4.282617 2.034453 -2.148997 

6.615843 -1.575084 -1.655380 
-1.575084 -2.776190 4.646989 
-1.655380 4.646989 0.417526 

-3.130338 0.418994 6.370401 
0.418994 -2.159463 -0.989100 
6.370401 -0.989100 -0.607847 

9.557525 -5.912237 0.537456 
-5.912237 -6.785580 8.952992 
0.537456 8.952992 0.174268 

-2.070526 -7.304307 12.274156 
-7.304307 -3.145201 -0.780356 
12.274156 -0.780356 -3.378280 

0.950116 -0.253825 6.810180 
-0.253825 2.013255 -1.468571 
6.810180 -1.468571 3.433195 

-11.994561 -5.550783 6.517937 
-5.550783 -18.020516 12.508169 
6.517937 12.508169 -10.684319 

-11.010570 -5.839725 5.308990 
-5.839725 -10.647804 5.052560 
5.308990 5.052560 -4.569777 

0.220251 -0.024939 -0.164032 
-0.024939 1.473791 -0.679631 
-0.164032 -0.679631 1.255570 

-0.854864 -0.040262 0.275750 
-0.040262 -0.614720 0.472342 
0.275750 0.472342 -0.219734 

0.151335 0.042005 -0.036514 
0.042005 0.020941 0.023370 
-0.036514 0.023370 -0.006358 

-0.071897 0.081762 0.084176 
0.081762 -0.038454 -0.000703 
0.084176 -0.000703 0.050815 

-0.155254 0.206873 -0.143268 
0.206873 -0.292604 0.119135 
-0.143268 0.119135 -0.292367 

1.792836 -0.005114 -0.622492 
-0.005114 0.194736 -0.056738 
-0.622492 -0.056738 1.094355 

-2.399528 -0.426941 0.394201 
-0.426941 -1.188553 -0.007550 
0.394201 -0.007550 -0.824576 

0.163432 0.793235 -1.564179 
0.793235 -0.247890 0.445332 
-1.564179 0.445332 -0.202313 

2.537584 0.467286 -1.534119 
0.467286 0.627786 -0.677261 
-1.534119 -0.677261 3.055310 

-1.427189 -0.817396 -0.143435 
-0.817396 -2.367458 1.100543 
-0.143435 1.100543 -1.449123 

-0.219108 -0.227009 -0.057281 
-0.227009 -0.295209 -0.149837 
-0.057281 -0.149837 0.839562 

0.115944 0.018497 -0.738576 
0.018497 -0.242445 -0.142729 
-0.738576 -0.142729 1.143076 

0.069526 0.160431 -1.008275 
0.160431 -0.467681 0.143811 
-1.008275 0.143811 0.742137 

-0.475688 0.236298 -0.939336 
0.236298 -0.855339 0.208230 
-0.939336 0.208230 0.074063 

1.939984 0.123149 -1.281101 
0.123149 -0.022152 -0.061228 
-1.281101 -0.061228 2.117345 

-0.953978 -0.669132 -0.003804 
-0.669132 -1.043755 -0.166695 
-0.003804 -0.166695 1.298278 

-0.036371 0.087531 -1.114030 
0.087531 -0.531376 0.317840 
-1.114030 0.317840 0.324390 

0.893813 -0.224231 -0.611776 
-0.224231 -0.541159 0.388388 
-0.611776 0.388388 0.411679 

-1.966341 -0.356541 0.809810 
-0.356541 -0.727711 -0.246119 
0.809810 -0.246119 0.343337 

2.137042 0.335634 -1.231083 
0.335634 -0.020620 0.546375 
-1.231083 0.546375 0.569392 

-1.423381 -0.706024 0.429039 
-0.706024 -0.790104 -0.637936 
0.429039 -0.637936 1.085273 

0.016525 0.505172 -1.928467 
0.505172 -0.196768 0.362595 
-1.928467 0.362595 0.089978 

-0.422286 0.524551 -1.110469 
0.524551 -0.941037 0.583842 
-1.110469 0.583842 -0.843359 

1.932555 0.132601 -0.937824 
0.132601 0.328587 -0.563762 
-0.937824 -0.563762 3.015687 

0.366512 -0.796079 -0.446294 
-0.796079 -1.038874 0.244327 
-0.446294 0.244327 0.717564 

-1.175899 -0.632337 0.426280 
-0.632337 -0.966670 0.419269 
0.426280 0.419269 -0.772718 

-0.563267 -0.365614 0.079622 
-0.365614 0.025343 0.005449 
0.079622 0.005449 0.267522 

-0.091469 0.037894 0.008614 
0.037894 -0.047054 -0.009335 
0.008614 -0.009335 0.009863 

0.088500 0.033116 -0.048597 
0.033116 0.003903 0.019788 
-0.048597 0.019788 0.033314 

0.473346 0.008178 0.060051 
0.008178 0.085491 0.097598 
0.060051 0.097598 0.341231 

-0.854772 0.174653 0.330903 
0.174653 -1.094169 0.101935 
0.330903 0.101935 -0.523438 

0.698822 -0.422112 -0.122951 
-0.422112 0.126051 0.180600 
-0.122951 0.180600 0.424799 

0.222074 0.490270 0.755125 
0.490270 0.026290 0.198578 
0.755125 0.198578 0.601763 

-0.759303 0.291801 0.715094 
0.291801 -1.543995 0.408074 
0.715094 0.408074 -0.836341 

0.039309 -0.405412 0.182041 
-0.405412 -1.299872 0.127427 
0.182041 0.127427 0.658219 

-0.088776 -0.279087 0.230422 
-0.279087 -0.470986 0.400010 
0.230422 0.400010 0.109527 

-0.348664 -0.015345 0.444673 
-0.015345 -0.758523 0.327993 
0.444673 0.327993 -0.121816 

-0.381451 0.159962 0.543172 
0.159962 -0.817653 0.257690 
0.543172 0.257690 0.014294 

0.299831 0.045895 0.509205 
0.045895 -0.479481 0.352020 
0.509205 0.352020 0.516529 

-0.802876 0.174408 0.704878 
0.174408 -1.621358 0.369574 
0.704878 0.369574 -0.417500 

0.034357 -0.471384 0.153716 
-0.471384 -1.173654 0.395315 
0.153716 0.395315 -0.161400 

-0.291897 -0.024378 0.635523 
-0.024378 -0.605786 0.336484 
0.635523 0.336484 0.311788 

-1.039191 0.057366 0.439491 
0.057366 -1.283998 0.143483 
0.439491 0.143483 -0.073222 

0.828913 -0.582295 -0.251615 
-0.582295 0.134341 0.338974 
-0.251615 0.338974 0.373118 

-0.908081 0.418318 0.672817 
0.418318 -1.105285 0.141211 
0.672817 0.141211 0.014515 

0.277134 -0.530078 -0.058806 
-0.530078 -0.693252 0.353899 
-0.058806 0.353899 -0.324972 

-0.544920 0.395024 0.920342 
0.395024 -0.321960 0.193546 
0.920342 0.193546 0.179166 

0.358946 0.299899 0.571103 
0.299899 -0.191178 0.150078 
0.571103 0.150078 0.845813 

-0.248680 0.048563 0.516782 
0.048563 -1.437846 0.458263 
0.516782 0.458263 -0.628466 

-0.424355 -0.408482 0.345890 
-0.408482 -1.551575 0.266602 
0.345890 0.266602 -0.141278 

0.082246 -0.441351 0.067635 
-0.441351 -0.241831 0.130601 
0.067635 0.130601 0.383486 

0.380757 -0.175680 0.182475 
-0.175680 0.436520 0.137382 
0.182475 0.137382 0.701505 

TENSORS Strain float 
-0.000000 -0.000000 0.008623 
-0.000000 0.000000 0.006256 
0.008623 0.006256 0.006030 

0.000000 -0.000000 0.008555 
-0.000000 -0.000000 0.010225 
0.008555 0.010225 0.004784 

0.000000 -0.000000 0.006861 
-0.000000 0.000000 0.019764 
0.006861 0.019764 0.006739 

0.000000 -0.000000 0.002847 
-0.000000 0.000000 0.021954 
0.002847 0.021954 0.009664 

0.000000 0.000000 0.000473 
0.000000 0.000000 0.022213 
0.000473 0.022213 0.008492 

-0.000000 0.000000 0.000460 
0.000000 -0.000000 0.018786 
0.000460 0.018786 0.009124 

0.000000 -0.000000 0.002689 
-0.000000 -0.000000 0.017845 
0.002689 0.017845 0.008094 

-0.000000 -0.000000 0.003664 
-0.000000 -0.000000 0.020920 
0.003664 0.020920 0.008429 

-0.000000 -0.000000 0.000759 
-0.000000 -0.000000 0.021051 
0.000759 0.021051 0.008549 

0.000000 0.000000 0.000191 
0.000000 -0.000000 0.016879 
0.000191 0.016879 0.007387 

-0.000000 -0.000000 0.002033 
-0.000000 0.000000 0.016174 
0.002033 0.016174 0.005773 

-0.000000 -0.000000 0.001703 
-0.000000 -0.000000 0.015217 
0.001703 0.015217 0.006931 

-0.000000 -0.000000 0.002302 
-0.000000 0.000000 0.014264 
0.002302 0.014264 0.005943 

-0.000000 0.000000 0.004229 
0.000000 -0.000000 0.015581 
0.004229 0.015581 0.007244 

0.000000 -0.000000 0.003439 
-0.000000 -0.000000 0.020724 
0.003439 0.020724 0.007833 

-0.000000 0.000000 0.001935 
0.000000 -0.000000 0.020640 
0.001935 0.020640 0.008210 

-0.000000 0.000000 0.001102 
0.000000 -0.000000 0.020715 
0.001102 0.020715 0.008208 

-0.000000 0.000000 0.000198 
0.000000 -0.000000 0.018532 
0.000198 0.018532 0.008324 

0.000000 -0.000000 0.000647 
-0.000000 0.000000 0.016075 
0.000647 0.016075 0.006750 

0.000000 0.000000 -0.000055 
0.000000 0.000000 0.016160 
-0.000055 0.016160 0.005467 

-0.000000 -0.000000 -0.001713 
-0.000000 0.000000 0.011081 
-0.001713 0.011081 0.004788 

0.000000 -0.000000 -0.002062 
-0.000000 -0.000000 0.006170 
-0.002062 0.006170 0.003211 

-0.000000 0.000000 -0.002365 
0.000000 -0.000000 0.002330 
-0.002365 0.002330 0.001341 

-0.000000 -0.000000 -0.001179 
-0.000000 -0.000000 -0.000452 
-0.001179 -0.000452 -0.000820 

-0.000000 -0.000000 0.000202 
-0.000000 0.000000 -0.003237 
0.000202 -0.003237 -0.000933 

0.000000 0.000000 0.008150 
0.000000 0.000000 0.005062 
0.008150 0.005062 0.004094 

0.000000 0.000000 0.011068 
0.000000 0.000000 0.012086 
0.011068 0.012086 -0.000852 

0.000000 0.000000 0.011092 
0.000000 0.000000 0.030496 
0.011092 0.030496 0.011643 

0.000000 0.000000 0.008464 
0.000000 0.000000 0.032757 
0.008464 0.032757 0.006367 

0.000000 0.000000 0.008525 
0.000000 0.000000 0.029933 
0.008525 0.029933 0.010273 

-0.000000 -0.000000 0.009762 
-0.000000 0.000000 0.024002 
0.009762 0.024002 0.005408 

-0.000000 0.000000 0.012551 
0.000000 0.000000 0.022322 
0.012551 0.022322 0.005532 

0.000000 -0.000000 0.013255 
-0.000000 -0.000000 0.028500 
0.013255 0.028500 0.009400 

0.000000 -0.000000 0.013446 
-0.000000 0.000000 0.029192 
0.013446 0.029192 0.009589 

0.000000 0.000000 0.014445 
0.000000 -0.000000 0.020207 
0.014445 0.020207 0.005340 

-0.000000 0.000000 0.012734 
0.000000 -0.000000 0.022401 
0.012734 0.022401 0.009838 

-0.000000 -0.000000 0.009976 
-0.000000 0.000000 0.021231 
0.009976 0.021231 0.005817 

0.000000 0.000000 0.009863 
0.000000 0.000000 0.018462 
0.009863 0.018462 0.005479 

-0.000000 0.000000 0.009930 
0.000000 0.000000 0.022317 
0.009930 0.022317 0.004490 

0.000000 0.000000 0.008787 
0.000000 0.000000 0.028436 
0.008787 0.028436 0.011010 

-0.000000 0.000000 0.007868 
0.000000 -0.000000 0.028004 
0.007868 0.028004 0.008364 

-0.000000 0.000000 0.009119 
0.000000 0.000000 0.026984 
0.009119 0.026984 0.009475 

-0.000000 0.000000 0.012255 
0.000000 0.000000 0.022712 
0.012255 0.022712 0.006291 

0.000000 0.000000 0.015206 
0.000000 0.000000 0.020944 
0.015206 0.020944 0.005509 

0.000000 0.000000 0.012153 
0.000000 0.000000 0.023991 
0.012153 0.023991 0.011024 

-0.000000 0.000000 0.008246 
0.000000 0.000000 0.015301 
0.008246 0.015301 0.003246 

0.000000 0.000000 0.008249 
0.000000 -0.000000 0.009618 
0.008249 0.009618 0.000430 

-0.000000 -0.000000 0.006665 
-0.000000 0.000000 0.005932 
0.006665 0.005932 0.000942 

-0.000000 0.000000 0.003758 
0.000000 -0.000000 -0.001876 
0.003758 -0.001876 0.001236 

-0.000000 0.000000 0.003082 
0.000000 0.000000 -0.003421 
0.003082 -0.003421 -0.001893 

-0.000000 -0.000000 0.010538 
-0.000000 0.000000 0.003661 
0.010538 0.003661 0.004928 

0.000000 0.000000 0.015476 
0.000000 0.000000 0.015175 
0.015476 0.015175 0.003449 

0.000000 0.000000 0.022165 
0.000000 -0.000000 0.048425 
0.022165 0.048425 0.018621 

0.000000 0.000000 0.026131 
0.000000 0.000000 0.051803 
0.026131 0.051803 0.019694 

0.000000 0.000000 0.033206 
0.000000 0.000000 0.044476 
0.033206 0.044476 0.010822 

-0.000000 -0.000000 0.037463 
-0.000000 0.000000 0.037558 
0.037463 0.037558 0.012100 

0.000000 0.000000 0.036911 
0.000000 0.000000 0.040302 
0.036911 0.040302 0.007241 

0.000000 -0.000000 0.043739 
-0.000000 0.000000 0.039671 
0.043739 0.039671 0.009797 

-0.000000 -0.000000 0.055369 
-0.000000 0.000000 0.036808 
0.055369 0.036808 0.015807 

0.000000 0.000000 0.054852 
0.000000 0.000000 0.036685 
0.054852 0.036685 -0.000537 

-0.000000 0.000000 0.046428 
0.000000 -0.000000 0.037723 
0.046428 0.037723 0.002561 

-0.000000 -0.000000 0.041198 
-0.000000 0.000000 0.031429 
0.041198 0.031429 0.008435 

-0.000000 0.000000 0.034831 
0.000000 0.000000 0.033406 
0.034831 0.033406 0.005695 

-0.000000 0.000000 0.025021 
0.000000 0.000000 0.039496 
0.025021 0.039496 0.012764 

0.000000 0.000000 0.025059 
0.000000 0.000000 0.039212 
0.025059 0.039212 0.007826 

-0.000000 0.000000 0.027928 
0.000000 0.000000 0.041021 
0.027928 0.041021 0.009559 

-0.000000 0.000000 0.031348 
0.000000 0.000000 0.033306 
0.031348 0.033306 0.010503 

-0.000000 0.000000 0.043026 
0.000000 0.000000 0.026075 
0.043026 0.026075 0.009774 

0.000000 0.000000 0.050096 
0.000000 0.000000 0.033337 
0.050096 0.033337 0.003827 

0.000000 0.000000 0.049455 
0.000000 0.000000 0.038746 
0.049455 0.038746 0.005133 

-0.000000 0.000000 0.043599 
0.000000 0.000000 0.028715 
0.043599 0.028715 0.004185 

0.000000 0.000000 0.035412 
0.000000 0.000000 0.021278 
0.035412 0.021278 0.010517 

0.000000 0.000000 0.024164 
0.000000 0.000000 0.016934 
0.024164 0.016934 0.008836 

-0.000000 -0.000000 0.014116 
-0.000000 0.000000 0.002415 
0.014116 0.002415 -0.011915 

-0.000000 0.000000 0.010715 
0.000000 0.000000 -0.002905 
0.010715 -0.002905 -0.001851 

-0.000000 -0.000000 0.010634 
-0.000000 0.000000 0.003592 
0.010634 0.003592 0.005462 

0.000000 0.000000 0.012208 
0.000000 0.000000 0.018250 
0.012208 0.018250 0.001189 

-0.000000 0.000000 0.019666 
0.000000 0.000000 0.058803 
0.019666 0.058803 0.004368 

0.000000 0.000000 0.033045 
0.000000 0.000000 0.054492 
0.033045 0.054492 0.004644 

-0.000000 0.000000 0.043739 
0.000000 0.000000 0.052977 
0.043739 0.052977 0.001900 

-0.000000 -0.000000 0.045487 
-0.000000 0.000000 0.056667 
0.045487 0.056667 0.003527 

0.000000 0.000000 0.045917 
0.000000 0.000000 0.054764 
0.045917 0.054764 0.020458 

0.000000 0.000000 0.054284 
0.000000 0.000000 0.039105 
0.054284 0.039105 0.004545 

-0.000000 0.000000 0.068372 
0.000000 0.000000 0.039780 
0.068372 0.039780 -0.006435 

0.000000 0.000000 0.068330 
0.000000 0.000000 0.056829 
0.068330 0.056829 0.009272 

0.000000 -0.000000 0.060781 
-0.000000 0.000000 0.050695 
0.060781 0.050695 -0.002573 

-0.000000 -0.000000 0.054266 
-0.000000 0.000000 0.040776 
0.054266 0.040776 -0.003466 

-0.000000 0.000000 0.042819 
0.000000 0.000000 0.054604 
0.042819 0.054604 -0.008889 

0.000000 -0.000000 0.037254 
-0.000000 0.000000 0.050200 
0.037254 0.050200 0.002815 

0.000000 0.000000 0.037952 
0.000000 0.000000 0.039758 
0.037952 0.039758 -0.003079 

0.000000 0.000000 0.039187 
0.000000 0.000000 0.045857 
0.039187 0.045857 -0.010237 

0.000000 0.000000 0.037800 
0.000000 0.000000 0.036799 
0.037800 0.036799 -0.004928 

-0.000000 0.000000 0.039815 
0.000000 0.000000 0.025755 
0.039815 0.025755 -0.000951 

0.000000 -0.000000 0.050387 
-0.000000 0.000000 0.038633 
0.050387 0.038633 0.006776 

0.000000 0.000000 0.058803 
0.000000 0.000000 0.049968 
0.058803 0.049968 0.004722 

-0.000000 0.000000 0.054277 
0.000000 0.000000 0.049593 
0.054277 0.049593 -0.001564 

0.000000 0.000000 0.042856 
0.000000 0.000000 0.042144 
0.042856 0.042144 0.002542 

0.000000 0.000000 0.029087 
0.000000 0.000000 0.031072 
0.029087 0.031072 0.002319 

-0.000000 0.000000 0.016253 
0.000000 0.000000 0.007872 
0.016253 0.007872 -0.002387 

-0.000000 0.000000 0.011717 
0.000000 0.000000 -0.001361 
0.011717 -0.001361 -0.005632 

-0.000000 0.000000 0.012453 
0.000000 -0.000000 0.004408 
0.012453 0.004408 0.004879 

0.000000 -0.000000 0.018273 
-0.000000 0.000000 0.020277 
0.018273 0.020277 0.005764 

-0.000000 -0.000000 0.030578 
-0.000000 -0.000000 0.057505 
0.030578 0.057505 0.011352 

0.000000 0.000000 0.043628 
0.000000 -0.000000 0.048366 
0.043628 0.048366 -0.012230 

0.000000 -0.000000 0.055995 
-0.000000 0.000000 0.053791 
0.055995 0.053791 -0.004245 

-0.000000 -0.000000 0.059842 
-0.000000 -0.000000 0.066111 
0.059842 0.066111 0.015930 

0.000000 0.000000 0.056953 
0.000000 0.000000 0.058839 
0.056953 0.058839 -0.002988 

0.000000 0.000000 0.055981 
0.000000 0.000000 0.039181 
0.055981 0.039181 -0.008434 

-0.000000 -0.000000 0.056416 
-0.000000 -0.000000 0.045902 
0.056416 0.045902 0.012983 

0.000000 0.000000 0.058389 
0.000000 -0.000000 0.064476 
0.058389 0.064476 0.012087 

0.000000 -0.000000 0.055339 
-0.000000 0.000000 0.062550 
0.055339 0.062550 0.001904 

-0.000000 -0.000000 0.044438 
-0.000000 0.000000 0.054600 
0.044438 0.054600 -0.002359 

-0.000000 0.000000 0.041656 
0.000000 0.000000 0.061047 
0.041656 0.061047 0.013083 

-0.000000 -0.000000 0.049800 
-0.000000 0.000000 0.049010 
0.049800 0.049010 0.002096 

0.000000 0.000000 0.051599 
0.000000 0.000000 0.039649 
0.051599 0.039649 -0.008999 

0.000000 -0.000000 0.053397 
-0.000000 0.000000 0.042023 
0.053397 0.042023 -0.007944 

-0.000000 -0.000000 0.054139 
-0.000000 -0.000000 0.044443 
0.054139 0.044443 0.009792 

-0.000000 0.000000 0.047500 
0.000000 0.000000 0.033771 
0.047500 0.033771 0.000135 

0.000000 0.000000 0.048110 
0.000000 0.000000 0.041910 
0.048110 0.041910 0.015070 

0.000000 0.000000 0.049770 
0.000000 -0.000000 0.059254 
0.049770 0.059254 0.007433 

-0.000000 -0.000000 0.052909 
-0.000000 -0.000000 0.061887 
0.052909 0.061887 0.007049 

0.000000 -0.000000 0.053105 
-0.000000 0.000000 0.052089 
0.053105 0.052089 0.015705 

-0.000000 0.000000 0.040712 
0.000000 0.000000 0.046608 
0.040712 0.046608 -0.009705 

0.000000 -0.000000 0.023977 
-0.000000 0.000000 0.013145 
0.023977 0.013145 -0.012305 

-0.000000 -0.000000 0.015571 
-0.000000 -0.000000 0.000480 
0.015571 0.000480 -0.004625 

-0.000000 0.000000 0.014616 
0.000000 0.000000 0.003619 
0.014616 0.003619 0.006150 

0.000000 0.000000 0.021173 
0.000000 -0.000000 0.017967 
0.021173 0.017967 0.006065 

-0.000000 0.000000 0.037789 
0.000000 0.000000 0.053779 
0.037789 0.053779 0.001653 

0.000000 0.000000 0.047277 
0.000000 -0.000000 0.048795 
0.047277 0.048795 0.012325 

-0.000000 -0.000000 0.054133 
-0.000000 -0.000000 0.044275 
0.054133 0.044275 0.002851 

-0.000000 0.000000 0.063905 
0.000000 0.000000 0.054929 
0.063905 0.054929 -0.010778 

0.000000 0.000000 0.064543 
0.000000 -0.000000 0.056244 
0.064543 0.056244 -0.021534 

0.000000 0.000000 0.061724 
0.000000 0.000000 0.044080 
0.061724 0.044080 0.001070 

-0.000000 -0.000000 0.054737 
-0.000000 -0.000000 0.053602 
0.054737 0.053602 0.011833 

0.000000 0.000000 0.051553 
0.000000 -0.000000 0.065889 
0.051553 0.065889 -0.016196 

-0.000000 0.000000 0.047440 
0.000000 -0.000000 0.074362 
0.047440 0.074362 0.008039 

-0.000000 -0.000000 0.040436 
-0.000000 0.000000 0.063272 
0.040436 0.063272 -0.001388 

0.000000 -0.000000 0.046329 
-0.000000 -0.000000 0.054660 
0.046329 0.054660 -0.004039 

0.000000 0.000000 0.048458 
0.000000 -0.000000 0.049691 
0.048458 0.049691 0.008592 

0.000000 0.000000 0.045009 
0.000000 0.000000 0.047297 
0.045009 0.047297 0.003935 

-0.000000 0.000000 0.048751 
0.000000 -0.000000 0.033360 
0.048751 0.033360 0.005578 

-0.000000 0.000000 0.055731 
0.000000 -0.000000 0.044111 
0.055731 0.044111 0.006116 

-0.000000 0.000000 0.057104 
0.000000 -0.000000 0.048900 
0.057104 0.048900 -0.004370 

0.000000 0.000000 0.053688 
0.000000 -0.000000 0.053849 
0.053688 0.053849 0.012187 

0.000000 0.000000 0.056717 
0.000000 0.000000 0.060711 
0.056717 0.060711 -0.000051 

-0.000000 -0.000000 0.060553 
-0.000000 -0.000000 0.058617 
0.060553 0.058617 -0.006281 

0.000000 0.000000 0.051295 
0.000000 -0.000000 0.054860 
0.051295 0.054860 -0.016225 

-0.000000 0.000000 0.034219 
0.000000 0.000000 0.057689 
0.034219 0.057689 -0.002250 

0.000000 0.000000 0.018356 
0.000000 -0.000000 0.016568 
0.018356 0.016568 -0.000487 

-0.000000 -0.000000 0.014718 
-0.000000 -0.000000 0.000683 
0.014718 0.000683 -0.007860 

-0.000000 -0.000000 0.014620 
-0.000000 -0.000000 0.002470 
0.014620 0.002470 0.005347 

0.000000 0.000000 0.022869 
0.000000 -0.000000 0.012624 
0.022869 0.012624 0.008670 

0.000000 0.000000 0.044423 
0.000000 0.000000 0.049777 
0.044423 0.049777 0.012737 

0.000000 0.000000 0.060436 
0.000000 0.000000 0.053783 
0.060436 0.053783 0.014367 

-0.000000 -0.000000 0.065279 
-0.000000 -0.000000 0.036684 
0.065279 0.036684 -0.004191 

-0.000000 -0.000000 0.062994 
-0.000000 0.000000 0.047356 
0.062994 0.047356 -0.009965 

0.000000 0.000000 0.057790 
0.000000 0.000000 0.049833 
0.057790 0.049833 -0.019121 

0.000000 0.000000 0.054519 
0.000000 -0.000000 0.044552 
0.054519 0.044552 0.009782 

-0.000000 0.000000 0.050658 
0.000000 0.000000 0.056999 
0.050658 0.056999 0.008110 

0.000000 0.000000 0.051917 
0.000000 -0.000000 0.067904 
0.051917 0.067904 -0.015239 

-0.000000 0.000000 0.053957 
0.000000 0.000000 0.077041 
0.053957 0.077041 0.000298 

-0.000000 -0.000000 0.056491 
-0.000000 -0.000000 0.060660 
0.056491 0.060660 0.005834 

-0.000000 -0.000000 0.062010 
-0.000000 -0.000000 0.054622 
0.062010 0.054622 -0.006025 

-0.000000 -0.000000 0.063659 
-0.000000 -0.000000 0.058132 
0.063659 0.058132 0.001931 

0.000000 0.000000 0.059287 
0.000000 0.000000 0.056123 
0.059287 0.056123 0.015661 

0.000000 0.000000 0.049991 
0.000000 -0.000000 0.037533 
0.049991 0.037533 -0.000074 

-0.000000 0.000000 0.044547 
0.000000 0.000000 0.046157 
0.044547 0.046157 -0.013762 

-0.000000 0.000000 0.044736 
0.000000 0.000000 0.056726 
0.044736 0.056726 0.010816 

0.000000 -0.000000 0.048644 
-0.000000 0.000000 0.064161 
0.048644 0.064161 0.007866 

0.000000 0.000000 0.051611 
0.000000 -0.000000 0.060508 
0.051611 0.060508 -0.001049 

-0.000000 -0.000000 0.048660 
-0.000000 -0.000000 0.054532 
0.048660 0.054532 -0.018803 

0.000000 0.000000 0.043772 
0.000000 -0.000000 0.055545 
0.043772 0.055545 -0.002764 

-0.000000 0.000000 0.036364 
0.000000 0.000000 0.055641 
0.036364 0.055641 -0.011717 

-0.000000 0.000000 0.026749 
0.000000 -0.000000 0.016236 
0.026749 0.016236 -0.012104 

-0.000000 0.000000 0.019480 
0.000000 -0.000000 0.001809 
0.019480 0.001809 -0.007084 

0.000000 -0.000000 0.012979 
-0.000000 0.000000 0.003558 
0.012979 0.003558 0.007370 

0.000000 0.000000 0.014981 
0.000000 0.000000 0.011609 
0.014981 0.011609 0.000145 

-0.000000 -0.000000 0.029211 
-0.000000 0.000000 0.038705 
0.029211 0.038705 0.001804 

0.000000 0.000000 0.052969 
0.000000 0.000000 0.047743 
0.052969 0.047743 0.006356 

-0.000000 -0.000000 0.071562 
-0.000000 0.000000 0.037577 
0.071562 0.037577 0.005305 

-0.000000 0.000000 0.071797 
0.000000 0.000000 0.050249 
0.071797 0.050249 0.007071 

0.000000 0.000000 0.059045 
0.000000 0.000000 0.055398 
0.059045 0.055398 0.006059 

-0.000000 0.000000 0.043349 
0.000000 0.000000 0.053364 
0.043349 0.053364 -0.002051 

-0.000000 0.000000 0.039431 
0.000000 0.000000 0.053279 
0.039431 0.053279 -0.014293 

0.000000 0.000000 0.044043 
0.000000 0.000000 0.061317 
0.044043 0.061317 0.009234 

0.000000 -0.000000 0.054316 
-0.000000 0.000000 0.066557 
0.054316 0.066557 -0.006257 

-0.000000 -0.000000 0.065509 
-0.000000 -0.000000 0.058961 
0.065509 0.058961 0.004981 

-0.000000 0.000000 0.058773 
0.000000 0.000000 0.058713 
0.058773 0.058713 0.009014 

-0.000000 -0.000000 0.053268 
-0.000000 0.000000 0.059975 
0.053268 0.059975 -0.004111 

0.000000 0.000000 0.055843 
0.000000 0.000000 0.062073 
0.055843 0.062073 -0.004822 

-0.000000 -0.000000 0.049663 
-0.000000 0.000000 0.051350 
0.049663 0.051350 0.003726 

-0.000000 -0.000000 0.036757 
-0.000000 0.000000 0.055119 
0.036757 0.055119 0.004889 

-0.000000 0.000000 0.036341 
0.000000 0.000000 0.056971 
0.036341 0.056971 -0.000219 

0.000000 0.000000 0.050533 
0.000000 0.000000 0.064851 
0.050533 0.064851 0.007748 

0.000000 0.000000 0.057475 
0.000000 0.000000 0.064026 
0.057475 0.064026 0.018202 

-0.000000 -0.000000 0.049985 
-0.000000 0.000000 0.058387 
0.049985 0.058387 -0.003255 

0.000000 0.000000 0.039135 
0.000000 0.000000 0.047773 
0.039135 0.047773 0.000110 

0.000000 0.000000 0.029622 
0.000000 0.000000 0.049193 
0.029622 0.049193 -0.005917 

-0.000000 0.000000 0.021753 
0.000000 0.000000 0.016911 
0.021753 0.016911 -0.004706 

-0.000000 0.000000 0.017445 
0.000000 0.000000 0.003820 
0.017445 0.003820 -0.008492 

0.000000 0.000000 0.018172 
0.000000 -0.000000 0.005217 
0.018172 0.005217 0.006051 

0.000000 0.000000 0.023561 
0.000000 -0.000000 0.012445 
0.023561 0.012445 0.011628 

-0.000000 0.000000 0.036238 
0.000000 -0.000000 0.033019 
0.036238 0.033019 0.001742 

0.000000 0.000000 0.054078 
0.000000 -0.000000 0.035153 
0.054078 0.035153 -0.006871 

0.000000 0.000000 0.063600 
0.000000 -0.000000 0.036193 
0.063600 0.036193 0.015837 

-0.000000 0.000000 0.060593 
0.000000 -0.000000 0.062973 
0.060593 0.062973 -0.005963 

0.000000 0.000000 0.059160 
0.000000 -0.000000 0.065100 
0.059160 0.065100 0.006475 

0.000000 -0.000000 0.052325 
-0.000000 -0.000000 0.066074 
0.052325 0.066074 0.007022 

-0.000000 0.000000 0.045575 
0.000000 -0.000000 0.055919 
0.045575 0.055919 0.000778 

0.000000 0.000000 0.047030 
0.000000 -0.000000 0.049114 
0.047030 0.049114 0.007277 

-0.000000 0.000000 0.060040 
0.000000 -0.000000 0.049735 
0.060040 0.049735 -0.009927 

-0.000000 -0.000000 0.065739 
-0.000000 -0.000000 0.063942 
0.065739 0.063942 0.005420 

0.000000 -0.000000 0.052503 
-0.000000 -0.000000 0.070072 
0.052503 0.070072 -0.004487 

0.000000 0.000000 0.050125 
0.000000 -0.000000 0.053974 
0.050125 0.053974 -0.017227 

0.000000 0.000000 0.052383 
0.000000 -0.000000 0.060263 
0.052383 0.060263 0.006485 

0.000000 0.000000 0.049028 
0.000000 -0.000000 0.055531 
0.049028 0.055531 -0.010302 

-0.000000 0.000000 0.046908 
0.000000 -0.000000 0.058617 
0.046908 0.058617 -0.005234 

-0.000000 -0.000000 0.046077 
-0.000000 -0.000000 0.056936 
0.046077 0.056936 0.008133 

0.000000 -0.000000 0.059386 
-0.000000 -0.000000 0.053197 
0.059386 0.053197 0.003296 

0.000000 0.000000 0.077124 
0.000000 -0.000000 0.057917 
0.077124 0.057917 -0.011576 

-0.000000 0.000000 0.074348 
0.000000 -0.000000 0.065398 
0.074348 0.065398 0.005001 

0.000000 -0.000000 0.056330 
-0.000000 -0.000000 0.052354 
0.056330 0.052354 -0.012025 

-0.000000 0.000000 0.038299 
0.000000 -0.000000 0.048568 
0.038299 0.048568 -0.007510 

0.000000 0.000000 0.020513 
0.000000 -0.000000 0.015020 
0.020513 0.015020 -0.005929 

-0.000000 -0.000000 0.015761 
-0.000000 -0.000000 0.002701 
0.015761 0.002701 -0.007146 

0.000000 -0.000000 0.020239 
-0.000000 -0.000000 0.004378 
0.020239 0.004378 0.009005 

0.000000 0.000000 0.029441 
0.000000 -0.000000 0.010511 
0.029441 0.010511 0.006674 

-0.000000 0.000000 0.045893 
0.000000 0.000000 0.030544 
0.045893 0.030544 0.014039 

0.000000 -0.000000 0.051002 
-0.000000 -0.000000 0.036497 
0.051002 0.036497 0.000053 

0.000000 -0.000000 0.050012 
-0.000000 0.000000 0.044180 
0.050012 0.044180 -0.002451 

-0.000000 -0.000000 0.051561 
-0.000000 -0.000000 0.067130 
0.051561 0.067130 0.009181 

0.000000 0.000000 0.060773 
0.000000 0.000000 0.058035 
0.060773 0.058035 -0.005403 

-0.000000 -0.000000 0.067647 
-0.000000 -0.000000 0.068718 
0.067647 0.068718 -0.009810 

0.000000 -0.000000 0.056552 
-0.000000 0.000000 0.063126 
0.056552 0.063126 0.004583 

0.000000 0.000000 0.048381 
0.000000 -0.000000 0.041371 
0.048381 0.041371 -0.006780 

-0.000000 0.000000 0.048562 
0.000000 0.000000 0.041133 
0.048562 0.041133 -0.002231 

-0.000000 -0.000000 0.041490 
-0.000000 0.000000 0.072047 
0.041490 0.072047 0.003425 

-0.000000 -0.000000 0.038808 
-0.000000 -0.000000 0.075411 
0.038808 0.075411 0.006706 

0.000000 -0.000000 0.044205 
-0.000000 -0.000000 0.042535 
0.044205 0.042535 0.001798 

0.000000 -0.000000 0.051135 
-0.000000 -0.000000 0.051389 
0.051135 0.051389 -0.003623 

0.000000 0.000000 0.057157 
0.000000 0.000000 0.045669 
0.057157 0.045669 -0.004234 

-0.000000 -0.000000 0.057748 
-0.000000 0.000000 0.059406 
0.057748 0.059406 -0.011294 

-0.000000 -0.000000 0.053690 
-0.000000 0.000000 0.057976 
0.053690 0.057976 0.006702 

0.000000 0.000000 0.051351 
0.000000 -0.000000 0.040740 
0.051351 0.040740 0.003412 

0.000000 -0.000000 0.054904 
-0.000000 0.000000 0.047966 
0.054904 0.047966 -0.014725 

-0.000000 -0.000000 0.062669 
-0.000000 0.000000 0.062162 
0.062669 0.062162 -0.007223 

0.000000 -0.000000 0.059595 
-0.000000 -0.000000 0.059729 
0.059595 0.059729 -0.000418 

-0.000000 -0.000000 0.041061 
-0.000000 0.000000 0.053926 
0.041061 0.053926 -0.013316 

0.000000 0.000000 0.023698 
0.000000 0.000000 0.016016 
0.023698 0.016016 -0.007408 

-0.000000 -0.000000 0.017445 
-0.000000 0.000000 -0.000086 
0.017445 -0.000086 -0.007793 

-0.000000 -0.000000 0.023179 
-0.000000 0.000000 0.002122 
0.023179 0.002122 0.008129 

0.000000 0.000000 0.031244 
0.000000 0.000000 0.009652 
0.031244 0.009652 0.012728 

0.000000 0.000000 0.042976 
0.000000 0.000000 0.035227 
0.042976 0.035227 0.011044 

0.000000 0.000000 0.049852 
0.000000 0.000000 0.047047 
0.049852 0.047047 0.002221 

0.000000 -0.000000 0.053298 
-0.000000 0.000000 0.054361 
0.053298 0.054361 0.016291 

-0.000000 -0.000000 0.056834 
-0.000000 0.000000 0.058884 
0.056834 0.058884 -0.003871 

0.000000 0.000000 0.059551 
0.000000 0.000000 0.047414 
0.059551 0.047414 -0.010535 

0.000000 0.000000 0.058293 
0.000000 0.000000 0.065816 
0.058293 0.065816 -0.005290 

-0.000000 0.000000 0.062091 
0.000000 0.000000 0.063467 
0.062091 0.063467 -0.007357 

0.000000 0.000000 0.060969 
0.000000 0.000000 0.038977 
0.060969 0.038977 -0.006560 

0.000000 0.000000 0.053327 
0.000000 0.000000 0.040558 
0.053327 0.040558 -0.006606 

-0.000000 -0.000000 0.050049 
-0.000000 -0.000000 0.074629 
0.050049 0.074629 0.000949 

0.000000 0.000000 0.049221 
0.000000 -0.000000 0.068634 
0.049221 0.068634 -0.003181 

-0.000000 0.000000 0.048563 
0.000000 0.000000 0.033669 
0.048563 0.033669 -0.009845 

0.000000 0.000000 0.052690 
0.000000 0.000000 0.039026 
0.052690 0.039026 0.002851 

-0.000000 0.000000 0.056680 
0.000000 -0.000000 0.034355 
0.056680 0.034355 -0.003112 

-0.000000 -0.000000 0.060014 
-0.000000 0.000000 0.053771 
0.060014 0.053771 -0.011354 

-0.000000 0.000000 0.062939 
0.000000 -0.000000 0.058401 
0.062939 0.058401 0.002874 

0.000000 -0.000000 0.056247 
-0.000000 0.000000 0.046628 
0.056247 0.046628 -0.005738 

0.000000 0.000000 0.045801 
0.000000 -0.000000 0.044411 
0.045801 0.044411 0.001043 

-0.000000 0.000000 0.046159 
0.000000 0.000000 0.052949 
0.046159 0.052949 0.006021 

0.000000 0.000000 0.044184 
0.000000 0.000000 0.063113 
0.044184 0.063113 0.012151 

-0.000000 0.000000 0.035099 
0.000000 0.000000 0.052545 
0.035099 0.052545 -0.024725 

0.000000 0.000000 0.027256 
0.000000 0.000000 0.012181 
0.027256 0.012181 -0.002440 

-0.000000 0.000000 0.020111 
0.000000 0.000000 -0.000749 
0.020111 -0.000749 -0.010319 

-0.000000 -0.000000 0.019886 
-0.000000 0.000000 0.000873 
0.019886 0.000873 0.009920 

0.000000 0.000000 0.024476 
0.000000 0.000000 0.012021 
0.024476 0.012021 0.004002 

-0.000000 0.000000 0.031473 
0.000000 0.000000 0.044853 
0.031473 0.044853 0.011546 

0.000000 0.000000 0.036045 
0.000000 0.000000 0.051705 
0.036045 0.051705 0.008078 

-0.000000 -0.000000 0.042247 
-0.000000 0.000000 0.051778 
0.042247 0.051778 0.007123 

-0.000000 0.000000 0.044656 
0.000000 -0.000000 0.058129 
0.044656 0.058129 -0.008148 

0.000000 0.000000 0.037628 
0.000000 0.000000 0.055124 
0.037628 0.055124 0.001908 

0.000000 0.000000 0.031780 
0.000000 0.000000 0.057602 
0.031780 0.057602 0.009028 

-0.000000 0.000000 0.045706 
0.000000 0.000000 0.048018 
0.045706 0.048018 0.001124 

0.000000 0.000000 0.056258 
0.000000 0.000000 0.035980 
0.056258 0.035980 -0.002106 

-0.000000 0.000000 0.052133 
0.000000 0.000000 0.042450 
0.052133 0.042450 -0.005479 

-0.000000 -0.000000 0.055671 
-0.000000 0.000000 0.064354 
0.055671 0.064354 -0.005703 

0.000000 0.000000 0.068043 
0.000000 0.000000 0.057561 
0.068043 0.057561 -0.008261 

0.000000 0.000000 0.070281 
0.000000 0.000000 0.034554 
0.070281 0.034554 0.002111 

0.000000 0.000000 0.069582 
0.000000 0.000000 0.032897 
0.069582 0.032897 -0.009356 

0.000000 0.000000 0.065178 
0.000000 0.000000 0.038196 
0.065178 0.038196 0.011736 

-0.000000 -0.000000 0.057737 
-0.000000 0.000000 0.046282 
0.057737 0.046282 -0.000503 

-0.000000 -0.000000 0.067212 
-0.000000 0.000000 0.049154 
0.067212 0.049154 -0.004675 

0.000000 0.000000 0.071446 
0.000000 0.000000 0.054042 
0.071446 0.054042 0.009169 

0.000000 0.000000 0.062862 
0.000000 0.000000 0.056103 
0.062862 0.056103 -0.000987 

-0.000000 -0.000000 0.052243 
-0.000000 0.000000 0.059493 
0.052243 0.059493 0.000471 

0.000000 0.000000 0.046189 
0.000000 -0.000000 0.063491 
0.046189 0.063491 0.004036 

-0.000000 -0.000000 0.044772 
-0.000000 0.000000 0.043099 
0.044772 0.043099 -0.012490 

0.000000 0.000000 0.034688 
0.000000 0.000000 0.008164 
0.034688 0.008164 -0.012589 

-0.000000 -0.000000 0.025722 
-0.000000 0.000000 0.001906 
0.025722 0.001906 -0.010552 

-0.000000 0.000000 0.019919 
0.000000 0.000000 0.001654 
0.019919 0.001654 0.007087 

0.000000 0.000000 0.024497 
0.000000 0.000000 0.014943 
0.024497 0.014943 0.011573 

0.000000 -0.000000 0.033315 
-0.000000 0.000000 0.047403 
0.033315 0.047403 -0.000758 

0.000000 0.000000 0.034456 
0.000000 0.000000 0.049501 
0.034456 0.049501 -0.012106 

-0.000000 -0.000000 0.032102 
-0.000000 0.000000 0.049227 
0.032102 0.049227 -0.010319 

-0.000000 -0.000000 0.036994 
-0.000000 0.000000 0.056590 
0.036994 0.056590 -0.002836 

0.000000 0.000000 0.039973 
0.000000 0.000000 0.063147 
0.039973 0.063147 0.016005 

0.000000 0.000000 0.041609 
0.000000 0.000000 0.051650 
0.041609 0.051650 -0.007001 

-0.000000 0.000000 0.041977 
0.000000 0.000000 0.037822 
0.041977 0.037822 0.003649 

0.000000 0.000000 0.039833 
0.000000 0.000000 0.035435 
0.039833 0.035435 -0.001953 

0.000000 -0.000000 0.043818 
-0.000000 0.000000 0.041832 
0.043818 0.041832 0.008355 

-0.000000 -0.000000 0.045438 
-0.000000 0.000000 0.051933 
0.045438 0.051933 0.006990 

0.000000 0.000000 0.049526 
0.000000 0.000000 0.050084 
0.049526 0.050084 -0.009641 

-0.000000 -0.000000 0.055405 
-0.000000 0.000000 0.035461 
0.055405 0.035461 0.009618 

0.000000 0.000000 0.059454 
0.000000 0.000000 0.035551 
0.059454 0.035551 0.010746 

-0.000000 -0.000000 0.058003 
-0.000000 0.000000 0.049175 
0.058003 0.049175 -0.001209 

-0.000000 0.000000 0.047943 
0.000000 0.000000 0.048027 
0.047943 0.048027 0.000014 

-0.000000 0.000000 0.042180 
0.000000 0.000000 0.039539 
0.042180 0.039539 -0.004833 

0.000000 0.000000 0.045977 
0.000000 0.000000 0.048830 
0.045977 0.048830 -0.010889 

0.000000 0.000000 0.049465 
0.000000 0.000000 0.062712 
0.049465 0.062712 0.005880 

-0.000000 -0.000000 0.050538 
-0.000000 0.000000 0.070584 
0.050538 0.070584 0.010746 

0.000000 0.000000 0.057762 
0.000000 0.000000 0.057313 
0.057762 0.057313 -0.002995 

-0.000000 0.000000 0.052184 
0.000000 0.000000 0.036362 
0.052184 0.036362 -0.000032 

0.000000 0.000000 0.032223 
0.000000 0.000000 0.012393 
0.032223 0.012393 -0.013921 

-0.000000 0.000000 0.024616 
0.000000 0.000000 0.003747 
0.024616 0.003747 -0.009209 

0.000000 -0.000000 0.020204 
-0.000000 -0.000000 0.003171 
0.020204 0.003171 0.007611 

0.000000 0.000000 0.026185 
0.000000 0.000000 0.012676 
0.026185 0.012676 0.010582 

-0.000000 0.000000 0.038874 
0.000000 -0.000000 0.042883 
0.038874 0.042883 -0.003791 

0.000000 0.000000 0.043123 
0.000000 -0.000000 0.053226 
0.043123 0.053226 -0.013408 

-0.000000 -0.000000 0.037425 
-0.000000 -0.000000 0.052243 
0.037425 0.052243 0.008362 

-0.000000 -0.000000 0.041792 
-0.000000 -0.000000 0.048041 
0.041792 0.048041 0.004216 

0.000000 0.000000 0.055558 
0.000000 0.000000 0.055462 
0.055558 0.055462 -0.000519 

0.000000 -0.000000 0.058177 
-0.000000 -0.000000 0.051639 
0.058177 0.051639 -0.015184 

-0.000000 -0.000000 0.051424 
-0.000000 -0.000000 0.047450 
0.051424 0.047450 -0.003390 

0.000000 0.000000 0.047993 
0.000000 -0.000000 0.035074 
0.047993 0.035074 0.010180 

-0.000000 -0.000000 0.050984 
-0.000000 -0.000000 0.038849 
0.050984 0.038849 -0.000067 

-0.000000 -0.000000 0.049884 
-0.000000 -0.000000 0.052344 
0.049884 0.052344 -0.012507 

0.000000 -0.000000 0.046523 
-0.000000 -0.000000 0.052473 
0.046523 0.052473 0.011328 

0.000000 0.000000 0.048091 
0.000000 -0.000000 0.040245 
0.048091 0.040245 0.009033 

-0.000000 -0.000000 0.049558 
-0.000000 -0.000000 0.040663 
0.049558 0.040663 0.007634 

-0.000000 -0.000000 0.048959 
-0.000000 -0.000000 0.056047 
0.048959 0.056047 -0.010999 

-0.000000 -0.000000 0.052005 
-0.000000 -0.000000 0.050218 
0.052005 0.050218 -0.001938 

-0.000000 -0.000000 0.051766 
-0.000000 -0.000000 0.033198 
0.051766 0.033198 0.001205 

0.000000 -0.000000 0.047239 
-0.000000 -0.000000 0.047158 
0.047239 0.047158 -0.003177 

0.000000 -0.000000 0.048095 
-0.000000 0.000000 0.059405 
0.048095 0.059405 -0.009922 

-0.000000 -0.000000 0.053019 
-0.000000 0.000000 0.067957 
0.053019 0.067957 0.006330 

0.000000 -0.000000 0.050870 
-0.000000 -0.000000 0.049853 
0.050870 0.049853 -0.002916 

-0.000000 -0.000000 0.041583 
-0.000000 -0.000000 0.039540 
0.041583 0.039540 -0.019174 

-0.000000 -0.000000 0.026664 
-0.000000 -0.000000 0.013758 
0.026664 0.013758 -0.004189 

-0.000000 -0.000000 0.019619 
-0.000000 -0.000000 0.002707 
0.019619 0.002707 -0.010250 

0.000000 0.000000 0.021344 
0.000000 0.000000 0.002362 
0.021344 0.002362 0.008301 

0.000000 0.000000 0.029713 
0.000000 -0.000000 0.010096 
0.029713 0.010096 0.010864 

0.000000 -0.000000 0.044522 
-0.000000 0.000000 0.038427 
0.044522 0.038427 0.010121 

0.000000 0.000000 0.051423 
0.000000 -0.000000 0.057373 
0.051423 0.057373 0.007307 

-0.000000 -0.000000 0.051477 
-0.000000 -0.000000 0.056788 
0.051477 0.056788 0.014542 

-0.000000 0.000000 0.049009 
0.000000 0.000000 0.044356 
0.049009 0.044356 0.004775 

0.000000 0.000000 0.049846 
0.000000 -0.000000 0.049605 
0.049846 0.049605 -0.008733 

0.000000 0.000000 0.054221 
0.000000 0.000000 0.047985 
0.054221 0.047985 0.002945 

-0.000000 0.000000 0.061732 
0.000000 -0.000000 0.048735 
0.061732 0.048735 0.007199 

0.000000 0.000000 0.066303 
0.000000 -0.000000 0.037399 
0.066303 0.037399 0.003709 

-0.000000 0.000000 0.062071 
0.000000 0.000000 0.044012 
0.062071 0.044012 -0.006803 

-0.000000 -0.000000 0.058487 
-0.000000 -0.000000 0.059193 
0.058487 0.059193 -0.002418 

-0.000000 0.000000 0.054360 
0.000000 0.000000 0.056828 
0.054360 0.056828 0.004623 

-0.000000 0.000000 0.049395 
0.000000 -0.000000 0.051850 
0.049395 0.051850 0.002321 

0.000000 0.000000 0.051050 
0.000000 0.000000 0.050232 
0.051050 0.050232 0.009686 

0.000000 0.000000 0.056661 
0.000000 0.000000 0.058474 
0.056661 0.058474 0.006996 

0.000000 -0.000000 0.061287 
-0.000000 0.000000 0.045332 
0.061287 0.045332 0.000994 

-0.000000 -0.000000 0.061567 
-0.000000 -0.000000 0.031838 
0.061567 0.031838 -0.008469 

0.000000 -0.000000 0.051643 
-0.000000 0.000000 0.052454 
0.051643 0.052454 0.001271 

0.000000 0.000000 0.042657 
0.000000 0.000000 0.057681 
0.042657 0.057681 0.010570 

-0.000000 -0.000000 0.049214 
-0.000000 0.000000 0.061942 
0.049214 0.061942 -0.006901 

-0.000000 0.000000 0.051054 
0.000000 -0.000000 0.047889 
0.051054 0.047889 -0.004077 

0.000000 -0.000000 0.038231 
-0.000000 -0.000000 0.040895 
0.038231 0.040895 -0.006441 

-0.000000 0.000000 0.025488 
0.000000 0.000000 0.010027 
0.025488 0.010027 -0.007300 

-0.000000 -0.000000 0.021439 
-0.000000 -0.000000 0.000665 
0.021439 0.000665 -0.009844 

-0.000000 0.000000 0.019778 
0.000000 0.000000 0.001274 
0.019778 0.001274 0.008157 

0.000000 -0.000000 0.025992 
-0.000000 -0.000000 0.008968 
0.025992 0.008968 0.007966 

0.000000 0.000000 0.037020 
0.000000 -0.000000 0.038436 
0.037020 0.038436 0.008122 

0.000000 0.000000 0.040924 
0.000000 0.000000 0.058685 
0.040924 0.058685 -0.004490 

-0.000000 -0.000000 0.041340 
-0.000000 -0.000000 0.059035 
0.041340 0.059035 -0.011222 

-0.000000 0.000000 0.040258 
0.000000 -0.000000 0.048925 
0.040258 0.048925 -0.003432 

0.000000 0.000000 0.038367 
0.000000 -0.000000 0.049027 
0.038367 0.049027 0.005284 

0.000000 0.000000 0.040730 
0.000000 -0.000000 0.037329 
0.040730 0.037329 0.000206 

-0.000000 0.000000 0.047636 
0.000000 -0.000000 0.041859 
0.047636 0.041859 -0.006948 

0.000000 0.000000 0.051302 
0.000000 0.000000 0.045354 
0.051302 0.045354 0.008686 

0.000000 0.000000 0.053452 
0.000000 -0.000000 0.051277 
0.053452 0.051277 0.008977 

-0.000000 -0.000000 0.055276 
-0.000000 -0.000000 0.060687 
0.055276 0.060687 0.006968 

0.000000 0.000000 0.052815 
0.000000 -0.000000 0.066906 
0.052815 0.066906 -0.010883 

0.000000 0.000000 0.046520 
0.000000 -0.000000 0.061011 
0.046520 0.061011 0.002952 

0.000000 0.000000 0.047462 
0.000000 -0.000000 0.049598 
0.047462 0.049598 0.006219 

-0.000000 0.000000 0.058766 
0.000000 0.000000 0.056189 
0.058766 0.056189 0.013569 

-0.000000 -0.000000 0.067568 
-0.000000 -0.000000 0.040808 
0.067568 0.040808 0.000413 

-0.000000 0.000000 0.064065 
0.000000 0.000000 0.037888 
0.064065 0.037888 0.002487 

0.000000 -0.000000 0.052983 
-0.000000 -0.000000 0.064197 
0.052983 0.064197 -0.014320 

0.000000 0.000000 0.049959 
0.000000 -0.000000 0.054204 
0.049959 0.054204 0.004318 

-0.000000 -0.000000 0.054010 
-0.000000 0.000000 0.052891 
0.054010 0.052891 0.001515 

0.000000 0.000000 0.058926 
0.000000 -0.000000 0.046339 
0.058926 0.046339 -0.000878 

0.000000 -0.000000 0.050117 
-0.000000 0.000000 0.038641 
0.050117 0.038641 -0.008879 

-0.000000 0.000000 0.033383 
0.000000 -0.000000 0.009544 
0.033383 0.009544 -0.011766 

-0.000000 0.000000 0.025286 
0.000000 0.000000 -0.000146 
0.025286 -0.000146 -0.010457 

0.000000 -0.000000 0.018816 
-0.000000 0.000000 0.001771 
0.018816 0.001771 0.008297 

0.000000 0.000000 0.023172 
0.000000 0.000000 0.011108 
0.023172 0.011108 0.006115 

-0.000000 -0.000000 0.033563 
-0.000000 0.000000 0.041426 
0.033563 0.041426 0.007605 

0.000000 0.000000 0.046120 
0.000000 0.000000 0.054521 
0.046120 0.054521 -0.004474 

-0.000000 -0.000000 0.054464 
-0.000000 0.000000 0.056445 
0.054464 0.056445 -0.003481 

-0.000000 -0.000000 0.053565 
-0.000000 -0.000000 0.053372 
0.053565 0.053372 0.002445 

0.000000 0.000000 0.048939 
0.000000 -0.000000 0.053802 
0.048939 0.053802 0.007130 

0.000000 0.000000 0.043962 
0.000000 0.000000 0.040967 
0.043962 0.040967 -0.012088 

-0.000000 0.000000 0.036986 
0.000000 0.000000 0.049086 
0.036986 0.049086 0.001911 

0.000000 0.000000 0.033595 
0.000000 -0.000000 0.047503 
0.033595 0.047503 0.006130 

0.000000 0.000000 0.038828 
0.000000 0.000000 0.052736 
0.038828 0.052736 0.005952 

-0.000000 -0.000000 0.045177 
-0.000000 0.000000 0.059170 
0.045177 0.059170 0.002240 

-0.000000 -0.000000 0.050558 
-0.000000 0.000000 0.064892 
0.050558 0.064892 0.008461 

0.000000 0.000000 0.053570 
0.000000 0.000000 0.060409 
0.053570 0.060409 -0.016911 

0.000000 0.000000 0.052667 
0.000000 0.000000 0.048101 
0.052667 0.048101 -0.006091 

-0.000000 0.000000 0.052455 
0.000000 0.000000 0.048412 
0.052455 0.048412 -0.003575 

-0.000000 -0.000000 0.057970 
-0.000000 0.000000 0.040162 
0.057970 0.040162 -0.005892 

-0.000000 0.000000 0.052645 
0.000000 0.000000 0.051433 
0.052645 0.051433 0.005520 

0.000000 0.000000 0.049637 
0.000000 0.000000 0.066911 
0.049637 0.066911 0.005969 

0.000000 0.000000 0.053647 
0.000000 0.000000 0.055433 
0.053647 0.055433 -0.004617 

-0.000000 -0.000000 0.053592 
-0.000000 0.000000 0.048300 
0.053592 0.048300 0.000046 

-0.000000 0.000000 0.055280 
0.000000 0.000000 0.037649 
0.055280 0.037649 0.003423 

0.000000 -0.000000 0.052364 
-0.000000 -0.000000 0.037405 
0.052364 0.037405 -0.008641 

-0.000000 0.000000 0.037122 
0.000000 0.000000 0.011980 
0.037122 0.011980 -0.013009 

-0.000000 -0.000000 0.027536 
-0.000000 0.000000 0.002398 
0.027536 0.002398 -0.011398 

-0.000000 0.000000 0.018638 
0.000000 0.000000 0.001617 
0.018638 0.001617 0.008156 

0.000000 0.000000 0.027090 
0.000000 -0.000000 0.012286 
0.027090 0.012286 0.007246 

-0.000000 0.000000 0.046557 
0.000000 -0.000000 0.038456 
0.046557 0.038456 0.014931 

0.000000 0.000000 0.058522 
0.000000 -0.000000 0.050346 
0.058522 0.050346 0.005903 

-0.000000 -0.000000 0.054738 
-0.000000 0.000000 0.061833 
0.054738 0.061833 -0.001316 

-0.000000 0.000000 0.043478 
0.000000 0.000000 0.063875 
0.043478 0.063875 0.001233 

0.000000 0.000000 0.040526 
0.000000 0.000000 0.056922 
0.040526 0.056922 0.009891 

-0.000000 0.000000 0.045044 
0.000000 0.000000 0.047935 
0.045044 0.047935 0.014836 

-0.000000 -0.000000 0.044893 
-0.000000 -0.000000 0.061382 
0.044893 0.061382 0.011660 

0.000000 0.000000 0.043828 
0.000000 0.000000 0.050659 
0.043828 0.050659 -0.006896 

0.000000 0.000000 0.043197 
0.000000 0.000000 0.051233 
0.043197 0.051233 -0.001854 

-0.000000 -0.000000 0.038460 
-0.000000 0.000000 0.059739 
0.038460 0.059739 -0.006014 

-0.000000 0.000000 0.035585 
0.000000 0.000000 0.056983 
0.035585 0.056983 -0.006770 

0.000000 -0.000000 0.037510 
-0.000000 -0.000000 0.052150 
0.037510 0.052150 0.000177 

0.000000 0.000000 0.042051 
0.000000 0.000000 0.045564 
0.042051 0.045564 0.000451 

0.000000 0.000000 0.043879 
0.000000 0.000000 0.044646 
0.043879 0.044646 -0.007162 

-0.000000 -0.000000 0.042368 
-0.000000 -0.000000 0.044719 
0.042368 0.044719 0.001846 

-0.000000 0.000000 0.042044 
0.000000 0.000000 0.059952 
0.042044 0.059952 0.014186 

0.000000 0.000000 0.051165 
0.000000 0.000000 0.058685 
0.051165 0.058685 0.004726 

0.000000 0.000000 0.059908 
0.000000 0.000000 0.055030 
0.059908 0.055030 0.000624 

-0.000000 0.000000 0.064017 
0.000000 0.000000 0.044433 
0.064017 0.044433 0.000051 

0.000000 -0.000000 0.065083 
-0.000000 0.000000 0.030128 
0.065083 0.030128 -0.002625 

0.000000 0.000000 0.052494 
0.000000 0.000000 0.036998 
0.052494 0.036998 -0.008224 

-0.000000 0.000000 0.033185 
0.000000 -0.000000 0.015010 
0.033185 0.015010 -0.011443 

-0.000000 -0.000000 0.025013 
-0.000000 0.000000 0.004720 
0.025013 0.004720 -0.010199 

-0.000000 -0.000000 0.019325 
-0.000000 -0.000000 0.001183 
0.019325 0.001183 0.006437 

0.000000 0.000000 0.027198 
0.000000 0.000000 0.008396 
0.027198 0.008396 0.011315 

0.000000 0.000000 0.045612 
0.000000 -0.000000 0.034251 
0.045612 0.034251 0.000741 

0.000000 0.000000 0.051660 
0.000000 -0.000000 0.057557 
0.051660 0.057557 0.004897 

-0.000000 -0.000000 0.049049 
-0.000000 -0.000000 0.071661 
0.049049 0.071661 0.006829 

-0.000000 -0.000000 0.056336 
-0.000000 -0.000000 0.066842 
0.056336 0.066842 0.003887 

0.000000 0.000000 0.061223 
0.000000 -0.000000 0.056387 
0.061223 0.056387 -0.020411 

0.000000 0.000000 0.052382 
0.000000 -0.000000 0.055676 
0.052382 0.055676 -0.005331 

-0.000000 -0.000000 0.043087 
-0.000000 -0.000000 0.066108 
0.043087 0.066108 0.009265 

0.000000 0.000000 0.041118 
0.000000 -0.000000 0.051336 
0.041118 0.051336 0.007061 

-0.000000 -0.000000 0.040595 
-0.000000 -0.000000 0.051802 
0.040595 0.051802 -0.019095 

-0.000000 -0.000000 0.038813 
-0.000000 0.000000 0.061965 
0.038813 0.061965 0.008817 

-0.000000 -0.000000 0.034468 
-0.000000 -0.000000 0.059634 
0.034468 0.059634 -0.001865 

-0.000000 0.000000 0.033040 
0.000000 -0.000000 0.046615 
0.033040 0.046615 -0.001662 

0.000000 -0.000000 0.032249 
-0.000000 -0.000000 0.040028 
0.032249 0.040028 0.002586 

-0.000000 -0.000000 0.031450 
-0.000000 -0.000000 0.047880 
0.031450 0.047880 0.005867 

-0.000000 0.000000 0.029788 
0.000000 -0.000000 0.045780 
0.029788 0.045780 0.001779 

-0.000000 -0.000000 0.037574 
-0.000000 -0.000000 0.055908 
0.037574 0.055908 -0.006423 

0.000000 0.000000 0.048857 
0.000000 0.000000 0.051492 
0.048857 0.051492 -0.002054 

0.000000 0.000000 0.058211 
0.000000 -0.000000 0.043605 
0.058211 0.043605 -0.000538 

-0.000000 -0.000000 0.064659 
-0.000000 -0.000000 0.035609 
0.064659 0.035609 -0.007599 

0.000000 0.000000 0.055203 
0.000000 0.000000 0.034117 
0.055203 0.034117 0.000825 

0.000000 -0.000000 0.037990 
-0.000000 -0.000000 0.040028 
0.037990 0.040028 -0.014182 

-0.000000 -0.000000 0.026466 
-0.000000 -0.000000 0.015471 
0.026466 0.015471 -0.007603 

-0.000000 -0.000000 0.020759 
-0.000000 -0.000000 0.004972 
0.020759 0.004972 -0.009484 

-0.000000 0.000000 0.016720 
0.000000 0.000000 -0.000588 
0.016720 -0.000588 0.007250 

-0.000000 0.000000 0.023428 
0.000000 0.000000 0.006919 
0.023428 0.006919 0.005437 

-0.000000 0.000000 0.027600 
0.000000 0.000000 0.040275 
0.027600 0.040275 0.017412 

0.000000 0.000000 0.031609 
0.000000 0.000000 0.063152 
0.031609 0.063152 -0.011069 

-0.000000 -0.000000 0.048555 
-0.000000 0.000000 0.063962 
0.048555 0.063962 -0.000335 

-0.000000 0.000000 0.066848 
0.000000 0.000000 0.051398 
0.066848 0.051398 0.008701 

0.000000 0.000000 0.077125 
0.000000 0.000000 0.055704 
0.077125 0.055704 -0.000664 

0.000000 0.000000 0.071155 
0.000000 0.000000 0.070530 
0.071155 0.070530 0.000594 

-0.000000 0.000000 0.059517 
0.000000 0.000000 0.064754 
0.059517 0.064754 -0.013886 

0.000000 0.000000 0.053216 
0.000000 0.000000 0.050278 
0.053216 0.050278 -0.006596 

0.000000 -0.000000 0.047687 
-0.000000 0.000000 0.053822 
0.047687 0.053822 0.008140 

-0.000000 -0.000000 0.049599 
-0.000000 0.000000 0.061141 
0.049599 0.061141 0.003205 

-0.000000 0.000000 0.054236 
0.000000 0.000000 0.056132 
0.054236 0.056132 0.004338 

0.000000 -0.000000 0.051521 
-0.000000 0.000000 0.050797 
0.051521 0.050797 -0.000955 

0.000000 -0.000000 0.047336 
-0.000000 0.000000 0.042388 
0.047336 0.042388 -0.000140 

0.000000 -0.000000 0.044573 
-0.000000 0.000000 0.050374 
0.044573 0.050374 0.003753 

-0.000000 -0.000000 0.045083 
-0.000000 0.000000 0.040510 
0.045083 0.040510 -0.007838 

-0.000000 -0.000000 0.051490 
-0.000000 0.000000 0.047710 
0.051490 0.047710 0.007502 

0.000000 -0.000000 0.056231 
-0.000000 0.000000 0.047920 
0.056231 0.047920 0.005868 

0.000000 0.000000 0.056189 
0.000000 0.000000 0.036067 
0.056189 0.036067 -0.009652 

-0.000000 -0.000000 0.050237 
-0.000000 0.000000 0.034469 
0.050237 0.034469 -0.010289 

0.000000 0.000000 0.038558 
0.000000 0.000000 0.042956 
0.038558 0.042956 0.002997 

-0.000000 0.000000 0.027807 
0.000000 0.000000 0.038545 
0.027807 0.038545 -0.003859 

-0.000000 0.000000 0.020608 
0.000000 0.000000 0.011153 
0.020608 0.011153 -0.003857 

-0.000000 -0.000000 0.017647 
-0.000000 0.000000 0.004247 
0.017647 0.004247 -0.008743 

0.000000 -0.000000 0.011233 
-0.000000 -0.000000 -0.003462 
0.011233 -0.003462 0.006061 

0.000000 0.000000 0.014918 
0.000000 -0.000000 0.011607 
0.014918 0.011607 0.000238 

0.000000 0.000000 0.020749 
0.000000 -0.000000 0.047718 
0.020749 0.047718 0.016198 

0.000000 0.000000 0.036771 
0.000000 -0.000000 0.052486 
0.036771 0.052486 0.003995 

0.000000 -0.000000 0.057775 
-0.000000 -0.000000 0.050144 
0.057775 0.050144 0.005009 

-0.000000 0.000000 0.061896 
0.000000 -0.000000 0.044059 
0.061896 0.044059 -0.005811 

0.000000 0.000000 0.060163 
0.000000 -0.000000 0.047934 
0.060163 0.047934 0.002540 

0.000000 0.000000 0.061224 
0.000000 -0.000000 0.062206 
0.061224 0.062206 0.002519 

-0.000000 0.000000 0.060094 
0.000000 -0.000000 0.062459 
0.060094 0.062459 -0.017571 

0.000000 -0.000000 0.055616 
-0.000000 -0.000000 0.053045 
0.055616 0.053045 -0.004067 

-0.000000 0.000000 0.057719 
0.000000 -0.000000 0.047107 
0.057719 0.047107 0.003827 

-0.000000 -0.000000 0.062539 
-0.000000 -0.000000 0.058579 
0.062539 0.058579 0.000889 

-0.000000 0.000000 0.064144 
0.000000 -0.000000 0.051586 
0.064144 0.051586 -0.012242 

-0.000000 -0.000000 0.065144 
-0.000000 -0.000000 0.050856 
0.065144 0.050856 -0.008984 

0.000000 0.000000 0.060399 
0.000000 -0.000000 0.043826 
0.060399 0.043826 0.006950 

-0.000000 -0.000000 0.060036 
-0.000000 -0.000000 0.044155 
0.060036 0.044155 -0.002857 

-0.000000 0.000000 0.059222 
0.000000 -0.000000 0.037592 
0.059222 0.037592 -0.012037 

-0.000000 -0.000000 0.050235 
-0.000000 -0.000000 0.044992 
0.050235 0.044992 -0.008853 

0.000000 0.000000 0.043860 
0.000000 -0.000000 0.048455 
0.043860 0.048455 0.015413 

0.000000 0.000000 0.041687 
0.000000 -0.000000 0.038572 
0.041687 0.038572 0.001469 

0.000000 -0.000000 0.042403 
-0.000000 -0.000000 0.036783 
0.042403 0.036783 -0.000905 

0.000000 -0.000000 0.043994 
-0.000000 -0.000000 0.040882 
0.043994 0.040882 0.003792 

-0.000000 -0.000000 0.038807 
-0.000000 -0.000000 0.036126 
0.038807 0.036126 -0.008833 

-0.000000 0.000000 0.025223 
0.000000 -0.000000 0.011765 
0.025223 0.011765 -0.012359 

-0.000000 -0.000000 0.017695 
-0.000000 -0.000000 0.003848 
0.017695 0.003848 -0.006159 

-0.000000 0.000000 0.005898 
0.000000 -0.000000 -0.003404 
0.005898 -0.003404 0.001524 

0.000000 0.000000 0.009901 
0.000000 0.000000 0.010805 
0.009901 0.010805 0.005234 

-0.000000 0.000000 0.026896 
0.000000 0.000000 0.040000 
0.026896 0.040000 -0.000489 

0.000000 0.000000 0.046348 
0.000000 -0.000000 0.034606 
0.046348 0.034606 0.000343 

-0.000000 -0.000000 0.056698 
-0.000000 -0.000000 0.037964 
0.056698 0.037964 0.000782 

-0.000000 -0.000000 0.062751 
-0.000000 0.000000 0.042565 
0.062751 0.042565 -0.006669 

0.000000 0.000000 0.057064 
0.000000 -0.000000 0.044166 
0.057064 0.044166 -0.006470 

0.000000 0.000000 0.048174 
0.000000 -0.000000 0.043959 
0.048174 0.043959 -0.019373 

-0.000000 -0.000000 0.046704 
-0.000000 -0.000000 0.053295 
0.046704 0.053295 -0.005743 

0.000000 0.000000 0.046682 
0.000000 0.000000 0.046821 
0.046682 0.046821 0.010507 

-0.000000 0.000000 0.051212 
0.000000 0.000000 0.039046 
0.051212 0.039046 -0.005709 

-0.000000 -0.000000 0.056533 
-0.000000 0.000000 0.051947 
0.056533 0.051947 -0.006870 

-0.000000 -0.000000 0.056282 
-0.000000 0.000000 0.046769 
0.056282 0.046769 0.011844 

-0.000000 0.000000 0.052959 
0.000000 0.000000 0.046594 
0.052959 0.046594 -0.002886 

0.000000 -0.000000 0.049003 
-0.000000 -0.000000 0.039901 
0.049003 0.039901 -0.013656 

0.000000 -0.000000 0.046092 
-0.000000 0.000000 0.030648 
0.046092 0.030648 -0.006184 

-0.000000 -0.000000 0.043464 
-0.000000 0.000000 0.032305 
0.043464 0.032305 0.000530 

-0.000000 -0.000000 0.039624 
-0.000000 -0.000000 0.046531 
0.039624 0.046531 -0.014464 

0.000000 0.000000 0.036706 
0.000000 -0.000000 0.049421 
0.036706 0.049421 -0.002759 

0.000000 -0.000000 0.040037 
-0.000000 0.000000 0.034454 
0.040037 0.034454 -0.000426 

-0.000000 -0.000000 0.048219 
-0.000000 -0.000000 0.029225 
0.048219 0.029225 0.006493 

0.000000 -0.000000 0.044420 
-0.000000 0.000000 0.037646 
0.044420 0.037646 -0.005668 

-0.000000 -0.000000 0.031047 
-0.000000 -0.000000 0.037717 
0.031047 0.037717 -0.008592 

-0.000000 0.000000 0.017963 
0.000000 -0.000000 0.013355 
0.017963 0.013355 -0.001004 

-0.000000 -0.000000 0.013709 
-0.000000 0.000000 0.003888 
0.013709 0.003888 -0.007327 

0.000000 0.000000 0.001683 
0.000000 -0.000000 -0.001263 
0.001683 -0.001263 0.000387 

0.000000 -0.000000 0.003403 
-0.000000 -0.000000 0.004047 
0.003403 0.004047 0.002305 

-0.000000 -0.000000 0.015655 
-0.000000 -0.000000 0.020109 
0.015655 0.020109 -0.007549 

0.000000 0.000000 0.028724 
0.000000 0.000000 0.022118 
0.028724 0.022118 -0.004567 

-0.000000 -0.000000 0.039026 
-0.000000 -0.000000 0.023278 
0.039026 0.023278 -0.005440 

-0.000000 0.000000 0.052106 
0.000000 -0.000000 0.026533 
0.052106 0.026533 0.001235 

0.000000 0.000000 0.051209 
0.000000 0.000000 0.038616 
0.051209 0.038616 -0.010922 

0.000000 -0.000000 0.040207 
-0.000000 -0.000000 0.034163 
0.040207 0.034163 -0.019880 

-0.000000 0.000000 0.035532 
0.000000 -0.000000 0.036914 
0.035532 0.036914 -0.010144 

0.000000 0.000000 0.041737 
0.000000 -0.000000 0.032617 
0.041737 0.032617 -0.000608 

0.000000 0.000000 0.045824 
0.000000 -0.000000 0.028572 
0.045824 0.028572 -0.000847 

-0.000000 -0.000000 0.048697 
-0.000000 -0.000000 0.039630 
0.048697 0.039630 -0.016203 

0.000000 0.000000 0.050411 
0.000000 -0.000000 0.037646 
0.050411 0.037646 -0.006338 

-0.000000 0.000000 0.045062 
0.000000 -0.000000 0.038126 
0.045062 0.038126 -0.003025 

0.000000 0.000000 0.040025 
0.000000 -0.000000 0.032938 
0.040025 0.032938 -0.011591 

0.000000 -0.000000 0.033082 
-0.000000 -0.000000 0.022933 
0.033082 0.022933 -0.014170 

-0.000000 -0.000000 0.024817 
-0.000000 -0.000000 0.022302 
0.024817 0.022302 -0.000748 

-0.000000 -0.000000 0.026483 
-0.000000 -0.000000 0.032611 
0.026483 0.032611 -0.007709 

0.000000 0.000000 0.038614 
0.000000 -0.000000 0.038552 
0.038614 0.038552 -0.004212 

0.000000 -0.000000 0.048376 
-0.000000 -0.000000 0.021094 
0.048376 0.021094 0.001132 

-0.000000 -0.000000 0.051622 
-0.000000 -0.000000 0.020979 
0.051622 0.020979 -0.014758 

0.000000 0.000000 0.042423 
0.000000 -0.000000 0.038524 
0.042423 0.038524 -0.005890 

0.000000 -0.000000 0.028280 
-0.000000 -0.000000 0.035779 
0.028280 0.035779 -0.017092 

0.000000 0.000000 0.018685 
0.000000 -0.000000 0.011510 
0.018685 0.011510 -0.005992 

-0.000000 -0.000000 0.012698 
-0.000000 -0.000000 0.004710 
0.012698 0.004710 -0.005270 

-0.000000 -0.000000 0.000033 
-0.000000 -0.000000 -0.000231 
0.000033 -0.000231 0.000291 

0.000000 0.000000 0.000183 
0.000000 -0.000000 0.001098 
0.000183 0.001098 -0.000326 

-0.000000 0.000000 0.001906 
0.000000 -0.000000 0.006351 
0.001906 0.006351 -0.000410 

0.000000 0.000000 0.005865 
0.000000 -0.000000 0.010846 
0.005865 0.010846 -0.003479 

0.000000 -0.000000 0.010174 
-0.000000 0.000000 0.010050 
0.010174 0.010050 -0.002728 

-0.000000 0.000000 0.010604 
0.000000 -0.000000 0.011442 
0.010604 0.011442 -0.000230 

0.000000 0.000000 0.012917 
0.000000 -0.000000 0.026281 
0.012917 0.026281 -0.012457 

-0.000000 0.000000 0.013432 
0.000000 -0.000000 0.023727 
0.013432 0.023727 -0.000865 

-0.000000 0.000000 0.010576 
0.000000 -0.000000 0.021947 
0.010576 0.021947 -0.007254 

0.000000 0.000000 0.012921 
0.000000 -0.000000 0.019642 
0.012921 0.019642 -0.007816 

0.000000 0.000000 0.013658 
0.000000 0.000000 0.017946 
0.013658 0.017946 -0.005324 

-0.000000 -0.000000 0.013026 
-0.000000 -0.000000 0.023839 
0.013026 0.023839 -0.005598 

0.000000 -0.000000 0.013461 
-0.000000 -0.000000 0.028207 
0.013461 0.028207 -0.010127 

-0.000000 0.000000 0.014837 
0.000000 0.000000 0.027071 
0.014837 0.027071 -0.011042 

0.000000 0.000000 0.014522 
0.000000 -0.000000 0.021300 
0.014522 0.021300 -0.004681 

0.000000 -0.000000 0.010416 
-0.000000 0.000000 0.018161 
0.010416 0.018161 -0.003324 

-0.000000 -0.000000 0.007646 
-0.000000 -0.000000 0.015407 
0.007646 0.015407 -0.006378 

-0.000000 0.000000 0.007145 
0.000000 0.000000 0.015918 
0.007145 0.015918 -0.001642 

0.000000 0.000000 0.012212 
0.000000 0.000000 0.019477 
0.012212 0.019477 -0.010413 

0.000000 0.000000 0.016871 
0.000000 -0.000000 0.010671 
0.016871 0.010671 -0.001589 

-0.000000 -0.000000 0.011482 
-0.000000 -0.000000 0.015910 
0.011482 0.015910 -0.000301 

0.000000 0.000000 0.010387 
0.000000 0.000000 0.028842 
0.010387 0.028842 -0.013268 

-0.000000 -0.000000 0.014017 
-0.000000 -0.000000 0.026363 
0.014017 0.026363 -0.007526 

0.000000 0.000000 0.011160 
0.000000 -0.000000 0.010886 
0.011160 0.010886 0.000452 

-0.000000 -0.000000 0.008380 
-0.000000 0.000000 0.005538 
0.008380 0.005538 -0.004198 

0.000000 0.000000 -0.000719 
0.000000 -0.000000 -0.000120 
-0.000719 -0.000120 -0.000400 

0.000000 -0.000000 -0.001011 
-0.000000 -0.000000 0.001065 
-0.001011 0.001065 -0.000408 

0.000000 0.000000 -0.001385 
0.000000 -0.000000 0.002766 
-0.001385 0.002766 -0.001189 

0.000000 0.000000 -0.000283 
0.000000 -0.000000 0.005935 
-0.000283 0.005935 -0.002362 

-0.000000 0.000000 0.000001 
0.000000 -0.000000 0.006410 
0.000001 0.006410 -0.002777 

-0.000000 0.000000 -0.002322 
0.000000 -0.000000 0.009260 
-0.002322 0.009260 -0.004865 

-0.000000 -0.000000 -0.001527 
-0.000000 -0.000000 0.018236 
-0.001527 0.018236 -0.006265 

-0.000000 -0.000000 0.002562 
-0.000000 -0.000000 0.017130 
0.002562 0.017130 -0.009315 

0.000000 0.000000 0.003980 
0.000000 -0.000000 0.016270 
0.003980 0.016270 -0.006593 

-0.000000 -0.000000 0.002725 
-0.000000 -0.000000 0.014989 
0.002725 0.014989 -0.006224 

-0.000000 -0.000000 0.001158 
-0.000000 -0.000000 0.015120 
0.001158 0.015120 -0.007076 

0.000000 0.000000 0.000078 
0.000000 -0.000000 0.016740 
0.000078 0.016740 -0.007510 

0.000000 0.000000 0.001349 
0.000000 -0.000000 0.021209 
0.001349 0.021209 -0.008557 

-0.000000 -0.000000 0.003952 
-0.000000 -0.000000 0.021401 
0.003952 0.021401 -0.008513 

0.000000 0.000000 0.004315 
0.000000 -0.000000 0.016713 
0.004315 0.016713 -0.007782 

-0.000000 -0.000000 0.003979 
-0.000000 -0.000000 0.014437 
0.003979 0.014437 -0.007602 

0.000000 -0.000000 0.003405 
-0.000000 -0.000000 0.013334 
0.003405 0.013334 -0.005328 

-0.000000 0.000000 0.002434 
0.000000 -0.000000 0.011057 
0.002434 0.011057 -0.005903 

0.000000 -0.000000 0.002752 
-0.000000 -0.000000 0.012465 
0.002752 0.012465 -0.004128 

-0.000000 -0.000000 0.000940 
-0.000000 -0.000000 0.009808 
0.000940 0.009808 -0.005085 

0.000000 -0.000000 -0.001575 
-0.000000 -0.000000 0.012477 
-0.001575 0.012477 -0.006825 

0.000000 0.000000 0.000565 
0.000000 -0.000000 0.020908 
0.000565 0.020908 -0.007125 

0.000000 -0.000000 0.006010 
-0.000000 -0.000000 0.018005 
0.006010 0.018005 -0.007625 

0.000000 -0.000000 0.008241 
-0.000000 -0.000000 0.009771 
0.008241 0.009771 -0.004311 

-0.000000 0.000000 0.008151 
0.000000 -0.000000 0.006236 
0.008151 0.006236 -0.006154 

-0.000045 0.001165 0.005045 
0.001165 -0.000796 0.003014 
0.005045 0.003014 -0.001871 

-0.001130 0.004017 0.006171 
0.004017 0.001240 0.006862 
0.006171 0.006862 0.000602 

-0.002676 0.002140 0.004497 
0.002140 0.007155 0.007768 
0.004497 0.007768 -0.006720 

-0.001582 0.001959 0.001766 
0.001959 0.007202 0.012926 
0.001766 0.012926 -0.001780 

-0.000009 0.001542 0.000611 
0.001542 0.005147 0.009990 
0.000611 0.009990 -0.006231 

0.001486 0.002787 0.000429 
0.002787 0.003477 0.009680 
0.000429 0.009680 -0.002486 

0.000650 0.004312 0.001465 
0.004312 0.002985 0.010595 
0.001465 0.010595 -0.002741 

-0.001937 0.003240 0.002923 
0.003240 0.005053 0.009025 
0.002923 0.009025 -0.005420 

-0.000378 0.002839 0.000498 
0.002839 0.005428 0.008328 
0.000498 0.008328 -0.005274 

0.001228 0.004516 0.000169 
0.004516 0.002218 0.009811 
0.000169 0.009811 -0.002680 

-0.000220 0.003248 0.001567 
0.003248 0.004151 0.006292 
0.001567 0.006292 -0.005733 

0.000399 0.002440 0.001532 
0.002440 0.004009 0.006722 
0.001532 0.006722 -0.002796 

0.001285 0.002960 0.001757 
0.002960 0.002798 0.008058 
0.001757 0.008058 -0.002793 

-0.000527 0.003615 0.002719 
0.003615 0.004491 0.009697 
0.002719 0.009697 -0.001107 

-0.001003 0.001755 0.002363 
0.001755 0.005141 0.007221 
0.002363 0.007221 -0.006979 

-0.000555 0.002003 0.001281 
0.002003 0.004909 0.011123 
0.001281 0.011123 -0.003702 

-0.000602 0.001945 0.001025 
0.001945 0.004179 0.008715 
0.001025 0.008715 -0.005419 

0.000299 0.003200 -0.000106 
0.003200 0.002787 0.008562 
-0.000106 0.008562 -0.003536 

-0.000468 0.004881 0.000108 
0.004881 0.003246 0.009510 
0.000108 0.009510 -0.002419 

-0.001105 0.002376 0.000360 
0.002376 0.005221 0.004545 
0.000360 0.004545 -0.006667 

-0.000232 0.001682 -0.000934 
0.001682 0.002813 0.006824 
-0.000934 0.006824 -0.001231 

-0.000202 0.002157 -0.001242 
0.002157 0.002299 0.004390 
-0.001242 0.004390 0.000366 

0.000790 0.002083 -0.002313 
0.002083 0.002402 0.001621 
-0.002313 0.001621 0.000218 

0.000921 0.000717 -0.000203 
0.000717 -0.000949 0.000020 
-0.000203 0.000020 -0.001161 

0.000921 0.000032 -0.000357 
0.000032 -0.000122 -0.002236 
-0.000357 -0.002236 0.001176 

0.001945 0.003137 0.004687 
0.003137 -0.000934 0.004187 
0.004687 0.004187 0.000303 

0.000016 0.007606 0.010382 
0.007606 0.002060 0.009296 
0.010382 0.009296 -0.001480 

-0.001752 0.004444 0.006283 
0.004444 0.011953 0.026667 
0.006283 0.026667 0.005688 

0.000041 0.004948 0.005630 
0.004948 0.012697 0.024875 
0.005630 0.024875 -0.001095 

0.000825 0.006250 0.004296 
0.006250 0.009695 0.025528 
0.004296 0.025528 0.005582 

0.001859 0.008674 0.005135 
0.008674 0.009037 0.020521 
0.005135 0.020521 0.000683 

0.000469 0.010179 0.008825 
0.010179 0.011986 0.016203 
0.008825 0.016203 0.001190 

0.000128 0.010392 0.008816 
0.010392 0.007448 0.024829 
0.008816 0.024829 0.004778 

0.000666 0.010979 0.006484 
0.010979 0.005077 0.027518 
0.006484 0.027518 0.004231 

-0.001141 0.014200 0.008329 
0.014200 0.010986 0.014602 
0.008329 0.014602 0.002172 

-0.001839 0.010841 0.008251 
0.010841 0.010215 0.018675 
0.008251 0.018675 0.005575 

-0.000075 0.009484 0.005217 
0.009484 0.006799 0.018832 
0.005217 0.018832 0.001765 

0.000044 0.009608 0.005309 
0.009608 0.009963 0.013465 
0.005309 0.013465 0.001599 

-0.000762 0.007070 0.008493 
0.007070 0.011453 0.015690 
0.008493 0.015690 -0.001488 

-0.000613 0.005280 0.004880 
0.005280 0.007184 0.026738 
0.004880 0.026738 0.007138 

0.000834 0.006346 0.004896 
0.006346 0.008678 0.021192 
0.004896 0.021192 0.002210 

0.002091 0.005986 0.005606 
0.005986 0.004215 0.024263 
0.005606 0.024263 0.004679 

0.001967 0.009668 0.006300 
0.009668 0.002242 0.020890 
0.006300 0.020890 0.002614 

-0.002035 0.012646 0.010171 
0.012646 0.008262 0.014602 
0.010171 0.014602 0.001180 

-0.002605 0.009538 0.005677 
0.009538 0.009837 0.022534 
0.005677 0.022534 0.007083 

0.000002 0.009890 0.003618 
0.009890 0.008943 0.011073 
0.003618 0.011073 0.000477 

-0.001056 0.007826 0.004927 
0.007826 0.007773 0.007128 
0.004927 0.007128 -0.002146 

-0.001938 0.003230 0.003592 
0.003230 0.007335 0.004153 
0.003592 0.004153 -0.001464 

-0.000451 0.002938 0.001604 
0.002938 0.002860 -0.003598 
0.001604 -0.003598 0.002345 

-0.000451 0.002029 0.002732 
0.002029 0.000344 -0.002038 
0.002732 -0.002038 -0.001603 

0.003292 0.003870 0.005636 
0.003870 -0.000046 0.002277 
0.005636 0.002277 -0.001633 

0.004459 0.009994 0.013671 
0.009994 0.002050 0.008233 
0.013671 0.008233 -0.000067 

0.002644 0.000293 0.022313 
0.000293 0.006918 0.059871 
0.022313 0.059871 0.004665 

0.004717 -0.000138 0.031334 
-0.000138 0.001793 0.052891 
0.031334 0.052891 0.007010 

0.002838 0.001205 0.039035 
0.001205 0.005668 0.050314 
0.039035 0.050314 -0.001626 

-0.000368 0.003589 0.045434 
0.003589 0.012740 0.034142 
0.045434 0.034142 0.003665 

0.004552 0.002792 0.043833 
0.002792 0.009642 0.040161 
0.043833 0.040161 -0.003426 

0.007753 0.002561 0.039914 
0.002561 -0.000378 0.046001 
0.039914 0.046001 -0.000867 

-0.000344 0.004294 0.066972 
0.004294 0.001981 0.043388 
0.066972 0.043388 0.008072 

-0.005616 0.004839 0.070229 
0.004839 0.013429 0.035535 
0.070229 0.035535 -0.007547 

-0.003487 0.002686 0.043572 
0.002686 0.008648 0.048658 
0.043572 0.048658 -0.000522 

-0.004245 0.005015 0.044667 
0.005015 0.006231 0.033808 
0.044667 0.033808 0.004482 

-0.006540 0.004693 0.042186 
0.004693 0.014132 0.034211 
0.042186 0.034211 0.000196 

0.000026 0.003983 0.019857 
0.003983 0.007136 0.041829 
0.019857 0.041829 0.005597 

0.001912 0.004901 0.030246 
0.004901 0.000364 0.047186 
0.030246 0.047186 0.000187 

0.002280 0.001181 0.031881 
0.001181 0.003224 0.049124 
0.031881 0.049124 0.001999 

0.007785 -0.000259 0.030040 
-0.000259 0.002329 0.041551 
0.030040 0.041551 0.002794 

0.004714 0.001350 0.058476 
0.001350 -0.000213 0.027304 
0.058476 0.027304 0.003033 

-0.000427 0.001900 0.060083 
0.001900 0.003531 0.037548 
0.060083 0.037548 -0.002713 

-0.003904 -0.000228 0.054745 
-0.000228 0.007481 0.050031 
0.054745 0.050031 0.000884 

-0.005458 0.001080 0.050365 
0.001080 0.013919 0.026242 
0.050365 0.026242 -0.001650 

-0.007498 0.001034 0.036540 
0.001034 0.013911 0.015237 
0.036540 0.015237 0.004917 

-0.006699 -0.003199 0.038006 
-0.003199 0.009425 0.016978 
0.038006 0.016978 0.006519 

-0.002267 -0.001061 0.019760 
-0.001061 0.003638 0.002498 
0.019760 0.002498 -0.011566 

-0.002267 -0.001439 0.000941 
-0.001439 0.001030 -0.002072 
0.000941 -0.002072 0.008280 

0.001049 0.005492 0.006717 
0.005492 0.000544 0.002668 
0.006717 0.002668 -0.000572 

0.004972 0.015540 0.009204 
0.015540 0.001352 0.010820 
0.009204 0.010820 -0.000376 

0.008919 0.002200 0.011756 
0.002200 -0.000865 0.075502 
0.011756 0.075502 -0.003763 

0.007129 0.003023 0.029734 
0.003023 -0.004084 0.064459 
0.029734 0.064459 0.000023 

0.001165 0.005316 0.047349 
0.005316 0.000543 0.056605 
0.047349 0.056605 -0.001334 

0.000287 0.004151 0.036591 
0.004151 0.006296 0.057887 
0.036591 0.057887 -0.006307 

0.005578 -0.001541 0.036860 
-0.001541 0.002717 0.059321 
0.036860 0.059321 0.011347 

0.009392 0.000790 0.064823 
0.000790 0.000051 0.038022 
0.064823 0.038022 -0.001533 

-0.000028 0.001698 0.074706 
0.001698 0.004081 0.038337 
0.074706 0.038337 -0.010254 

-0.005033 -0.005358 0.067509 
-0.005358 0.005098 0.059660 
0.067509 0.059660 0.005529 

-0.004343 -0.005120 0.065116 
-0.005120 0.007903 0.051820 
0.065116 0.051820 -0.005287 

-0.007631 0.001333 0.063311 
0.001333 0.009216 0.034975 
0.063311 0.034975 -0.001767 

-0.003710 -0.001855 0.040810 
-0.001855 0.004296 0.065391 
0.040810 0.065391 -0.010832 

0.000465 0.000701 0.028440 
0.000701 -0.000794 0.062027 
0.028440 0.062027 0.002037 

0.000823 0.006582 0.042283 
0.006582 -0.000072 0.036049 
0.042283 0.036049 -0.002058 

-0.000924 0.001717 0.036216 
0.001717 -0.002556 0.061012 
0.036216 0.061012 -0.007110 

0.001343 0.001765 0.031606 
0.001765 0.005096 0.035746 
0.031606 0.035746 -0.005140 

0.007048 0.006854 0.030236 
0.006854 0.005344 0.020879 
0.030236 0.020879 -0.004465 

0.005611 0.003019 0.044516 
0.003019 0.002185 0.040031 
0.044516 0.040031 0.000062 

-0.003017 -0.003136 0.069553 
-0.003136 0.006191 0.044936 
0.069553 0.044936 -0.001805 

-0.007614 -0.002939 0.058849 
-0.002939 0.008196 0.053557 
0.058849 0.053557 -0.004680 

-0.009179 -0.000274 0.037012 
-0.000274 0.006630 0.046372 
0.037012 0.046372 -0.001361 

-0.008556 -0.003859 0.026437 
-0.003859 0.010357 0.040790 
0.026437 0.040790 0.001322 

-0.003024 -0.000503 0.012473 
-0.000503 0.003516 0.002815 
0.012473 0.002815 0.000285 

-0.003024 -0.001793 0.006673 
-0.001793 0.001227 -0.000660 
0.006673 -0.000660 0.000357 

0.003880 0.006011 0.006377 
0.006011 -0.000526 0.002618 
0.006377 0.002618 -0.002656 

0.008203 0.013376 0.014036 
0.013376 -0.001540 0.012933 
0.014036 0.012933 0.000889 

0.008700 -0.000643 0.035983 
-0.000643 -0.002484 0.068669 
0.035983 0.068669 0.007288 

0.008245 0.003025 0.058223 
0.003025 0.000286 0.039195 
0.058223 0.039195 -0.012307 

0.002565 0.003486 0.051806 
0.003486 -0.006344 0.058503 
0.051806 0.058503 -0.003829 

-0.001926 -0.001069 0.060471 
-0.001069 -0.007454 0.075244 
0.060471 0.075244 0.014653 

-0.000649 -0.004023 0.068587 
-0.004023 -0.001731 0.073419 
0.068587 0.073419 -0.005152 

0.000290 0.004155 0.047627 
0.004155 0.003266 0.038343 
0.047627 0.038343 -0.006125 

0.001316 0.005632 0.045208 
0.005632 0.005134 0.036102 
0.045208 0.036102 0.008277 

-0.002033 -0.002921 0.061888 
-0.002921 0.000942 0.074931 
0.061888 0.074931 0.005150 

-0.007267 -0.005283 0.065225 
-0.005283 0.007875 0.058257 
0.065225 0.058257 0.000927 

-0.001855 0.000815 0.038483 
0.000815 0.005781 0.050587 
0.038483 0.050587 -0.002714 

0.005429 -0.002455 0.031386 
-0.002455 -0.004258 0.060367 
0.031386 0.060367 0.011120 

0.001199 -0.003568 0.067963 
-0.003568 0.000454 0.042188 
0.067963 0.042188 -0.001064 

0.001199 -0.001405 0.060688 
-0.001405 0.005099 0.037686 
0.060688 0.037686 -0.006592 

0.000495 -0.000742 0.051937 
-0.000742 -0.005775 0.037737 
0.051937 0.037737 -0.002402 

-0.004426 -0.003027 0.059952 
-0.003027 -0.000221 0.043501 
0.059952 0.043501 0.009112 

0.000406 0.005914 0.042085 
0.005914 0.010086 0.029357 
0.042085 0.029357 -0.003761 

0.001107 0.007641 0.043997 
0.007641 0.007959 0.032133 
0.043997 0.032133 0.008942 

0.002092 0.003193 0.051627 
0.003193 0.000972 0.066076 
0.051627 0.066076 0.001740 

0.000131 -0.000718 0.040259 
-0.000718 -0.002179 0.065452 
0.040259 0.065452 0.001814 

-0.008263 -0.002431 0.062729 
-0.002431 0.001847 0.048610 
0.062729 0.048610 0.012983 

-0.011157 -0.013318 0.061033 
-0.013318 0.007387 0.054858 
0.061033 0.054858 -0.008821 

-0.005604 -0.006095 0.022549 
-0.006095 0.002282 0.009771 
0.022549 0.009771 -0.006615 

-0.005604 -0.004506 0.005446 
-0.004506 0.000135 0.000017 
0.005446 0.000017 0.006626 

0.004371 0.004784 0.006871 
0.004784 -0.000766 0.002340 
0.006871 0.002340 -0.003277 

0.011077 0.012503 0.017072 
0.012503 -0.003562 0.011247 
0.017072 0.011247 0.003191 

0.006326 0.000550 0.038848 
0.000550 -0.002667 0.064423 
0.038848 0.064423 -0.005862 

0.004570 0.002880 0.038197 
0.002880 0.003325 0.033671 
0.038197 0.033671 0.006999 

0.006515 0.007267 0.054001 
0.007267 -0.005061 0.040785 
0.054001 0.040785 0.001885 

0.000425 0.000134 0.076599 
0.000134 -0.005049 0.065130 
0.076599 0.065130 -0.006780 

-0.001879 -0.006305 0.066781 
-0.006305 -0.004274 0.069403 
0.066781 0.069403 -0.010033 

-0.004658 0.000772 0.052502 
0.000772 0.000315 0.035005 
0.052502 0.035005 0.002614 

-0.002123 0.002736 0.060321 
0.002736 0.002265 0.056791 
0.060321 0.056791 0.005904 

-0.002742 0.002946 0.053268 
0.002946 0.001343 0.074617 
0.053268 0.074617 -0.014016 

-0.004669 -0.001524 0.036170 
-0.001524 0.001786 0.080322 
0.036170 0.080322 0.007439 

0.003929 0.002481 0.039545 
0.002481 -0.001742 0.065634 
0.039545 0.065634 -0.003466 

0.001419 0.003570 0.042401 
0.003570 -0.000025 0.063510 
0.042401 0.063510 -0.004577 

-0.002299 0.004269 0.038849 
0.004269 0.005627 0.043747 
0.038849 0.043747 0.006309 

0.002494 0.000114 0.039006 
0.000114 0.005884 0.044860 
0.039006 0.044860 -0.002137 

0.004653 0.003997 0.041129 
0.003997 0.002782 0.018957 
0.041129 0.018957 0.003627 

0.000916 -0.002132 0.062009 
-0.002132 0.001364 0.056913 
0.062009 0.056913 0.003213 

-0.002277 -0.002473 0.064593 
-0.002473 0.005218 0.048730 
0.064593 0.048730 -0.009094 

0.002019 0.000606 0.046338 
0.000606 0.006874 0.059387 
0.046338 0.059387 0.005416 

0.002557 -0.002400 0.067688 
-0.002400 -0.000135 0.069161 
0.067688 0.069161 -0.004037 

-0.006172 -0.005217 0.075921 
-0.005217 -0.002724 0.068829 
0.075921 0.068829 -0.000428 

-0.011384 -0.001564 0.052204 
-0.001564 0.000457 0.060790 
0.052204 0.060790 -0.009801 

-0.010576 -0.012992 0.021991 
-0.012992 -0.001365 0.072756 
0.021991 0.072756 0.006445 

-0.002425 -0.002497 0.010819 
-0.002497 -0.000221 0.007504 
0.010819 0.007504 0.002112 

-0.002425 -0.003708 0.010366 
-0.003708 0.000751 0.000544 
0.010366 0.000544 -0.000571 

0.005500 0.002838 0.006352 
0.002838 0.000725 0.002377 
0.006352 0.002377 -0.004616 

0.014369 0.009755 0.018945 
0.009755 -0.000677 0.005513 
0.018945 0.005513 0.003504 

0.010676 -0.003735 0.052783 
-0.003735 -0.007382 0.056180 
0.052783 0.056180 0.004950 

0.003228 -0.008189 0.071797 
-0.008189 -0.004027 0.063390 
0.071797 0.063390 0.003979 

-0.001523 0.005652 0.074026 
0.005652 0.000596 0.028099 
0.074026 0.028099 -0.003321 

-0.003469 0.003760 0.063906 
0.003760 0.001929 0.041372 
0.063906 0.041372 -0.001826 

-0.002181 -0.001342 0.052919 
-0.001342 0.003710 0.042629 
0.052919 0.042629 -0.011266 

-0.002574 0.000425 0.042282 
0.000425 0.005874 0.036573 
0.042282 0.036573 0.008637 

0.000839 -0.000107 0.060075 
-0.000107 -0.002480 0.069158 
0.060075 0.069158 0.006727 

0.001360 0.000421 0.061891 
0.000421 -0.004391 0.059859 
0.061891 0.059859 -0.010777 

0.001689 -0.005341 0.047597 
-0.005341 -0.006989 0.089832 
0.047597 0.089832 0.001925 

0.003679 0.000993 0.058802 
0.000993 -0.001132 0.050576 
0.058802 0.050576 0.004006 

0.001099 0.000091 0.073712 
0.000091 0.002727 0.049560 
0.073712 0.049560 -0.006696 

-0.002914 -0.004133 0.064408 
-0.004133 0.001229 0.062634 
0.064408 0.062634 -0.002231 

-0.006197 -0.007345 0.063491 
-0.007345 0.003966 0.063213 
0.063491 0.063213 0.012465 

-0.003629 0.002765 0.062132 
0.002765 0.009211 0.030083 
0.062132 0.030083 -0.003496 

0.000126 0.000926 0.040526 
0.000926 0.005974 0.046035 
0.040526 0.046035 -0.012392 

0.002606 -0.000320 0.033411 
-0.000320 0.000164 0.052674 
0.033411 0.052674 0.009689 

0.001978 -0.000588 0.051439 
-0.000588 0.000460 0.068144 
0.051439 0.068144 -0.001749 

-0.001967 -0.000038 0.059331 
-0.000038 0.002345 0.048231 
0.059331 0.048231 -0.000799 

-0.003259 0.000779 0.047654 
0.000779 0.002570 0.055571 
0.047654 0.055571 -0.012246 

-0.004938 -0.001514 0.039122 
-0.001514 -0.005182 0.046707 
0.039122 0.046707 0.004686 

-0.006410 -0.015382 0.050452 
-0.015382 -0.004299 0.070157 
0.050452 0.070157 -0.004743 

-0.004846 -0.006475 0.026916 
-0.006475 0.000450 0.010309 
0.026916 0.010309 -0.007619 

-0.004846 -0.005488 0.006430 
-0.005488 0.001341 0.001109 
0.006430 0.001109 0.007259 

0.001335 0.004415 0.009151 
0.004415 0.001106 0.002500 
0.009151 0.002500 0.000731 

0.009487 0.011892 0.010159 
0.011892 0.000557 0.008776 
0.010159 0.008776 -0.002378 

0.015838 0.005355 0.017866 
0.005355 -0.003791 0.043975 
0.017866 0.043975 -0.003441 

0.012396 -0.003019 0.048253 
-0.003019 -0.008394 0.060745 
0.048253 0.060745 0.001475 

0.000156 0.001570 0.078882 
0.001570 -0.000923 0.026292 
0.078882 0.026292 -0.001579 

-0.008501 -0.002018 0.076620 
-0.002018 0.008483 0.048899 
0.076620 0.048899 0.005703 

-0.010465 -0.000640 0.063385 
-0.000640 0.006468 0.043120 
0.063385 0.043120 0.006705 

-0.002611 0.002964 0.042528 
0.002964 0.008474 0.054613 
0.042528 0.054613 -0.003727 

0.003075 0.004727 0.033786 
0.004727 0.001760 0.055190 
0.033786 0.055190 -0.011645 

0.006849 0.002742 0.033918 
0.002742 -0.008135 0.052895 
0.033918 0.052895 0.010384 

0.007462 -0.000624 0.054803 
-0.000624 -0.011215 0.075538 
0.054803 0.075538 -0.004520 

-0.004490 -0.000006 0.062864 
-0.000006 0.003321 0.057588 
0.062864 0.057588 0.002070 

-0.003670 -0.001669 0.056514 
-0.001669 0.007573 0.054507 
0.056514 0.054507 0.008102 

0.001717 -0.000349 0.052077 
-0.000349 -0.004001 0.066415 
0.052077 0.066415 -0.001165 

-0.004120 -0.004728 0.054978 
-0.004728 -0.001207 0.072808 
0.054978 0.072808 -0.007163 

-0.008604 0.001045 0.048564 
0.001045 0.002787 0.050743 
0.048564 0.050743 0.004085 

-0.000277 0.004001 0.032168 
0.004001 0.002332 0.054363 
0.032168 0.054363 0.006675 

0.009461 0.005872 0.031394 
0.005872 -0.000024 0.059871 
0.031394 0.059871 -0.005213 

0.004628 0.002676 0.043694 
0.002676 -0.007769 0.069903 
0.043694 0.069903 0.002899 

-0.004993 0.004670 0.057412 
0.004670 -0.004073 0.067572 
0.057412 0.067572 0.014519 

-0.007234 0.004583 0.052609 
0.004583 0.004674 0.048574 
0.052609 0.048574 -0.003194 

-0.006342 0.006205 0.030631 
0.006205 0.003054 0.040948 
0.030631 0.040948 0.006059 

-0.005246 -0.007868 0.027635 
-0.007868 -0.000417 0.052139 
0.027635 0.052139 0.001004 

-0.002872 -0.004777 0.017909 
-0.004777 -0.001261 0.011053 
0.017909 0.011053 -0.001527 

-0.002872 -0.004925 0.009121 
-0.004925 -0.000746 0.002756 
0.009121 0.002756 0.002180 

0.003593 0.003098 0.005819 
0.003098 -0.000560 0.003748 
0.005819 0.003748 -0.007835 

0.008451 0.008818 0.021855 
0.008818 -0.001289 0.007484 
0.021855 0.007484 0.008564 

0.011893 0.003930 0.046372 
0.003930 -0.001650 0.034331 
0.046372 0.034331 -0.003031 

0.006348 -0.000679 0.051952 
-0.000679 0.000896 0.033865 
0.051952 0.033865 -0.009258 

-0.002005 0.004397 0.066712 
0.004397 0.005325 0.027334 
0.066712 0.027334 0.014505 

-0.000955 -0.002302 0.067206 
-0.002302 0.002771 0.075211 
0.067206 0.075211 -0.013197 

-0.004557 0.000862 0.050302 
0.000862 -0.004710 0.071647 
0.050302 0.071647 0.005817 

-0.004500 0.001722 0.056621 
0.001722 0.001763 0.071136 
0.056621 0.071136 0.005057 

0.000970 0.001391 0.042955 
0.001391 0.004805 0.042173 
0.042955 0.042173 -0.000592 

0.008674 0.000658 0.049302 
0.000658 -0.005162 0.056189 
0.049302 0.056189 0.006656 

0.003799 0.000909 0.068695 
0.000909 -0.005735 0.042175 
0.068695 0.042175 -0.009355 

-0.008824 -0.006040 0.072891 
-0.006040 0.005403 0.063605 
0.072891 0.063605 0.005132 

-0.001585 -0.009931 0.062496 
-0.009931 0.003560 0.082519 
0.062496 0.082519 -0.005755 

0.001505 0.000123 0.047004 
0.000123 -0.007626 0.047734 
0.047004 0.047734 -0.011489 

-0.002236 -0.001993 0.049224 
-0.001993 -0.005916 0.060735 
0.049224 0.060735 0.011345 

-0.001414 0.003738 0.053713 
0.003738 -0.006575 0.060485 
0.053713 0.060485 -0.008224 

-0.000554 0.003053 0.041361 
0.003053 0.000526 0.065665 
0.041361 0.065665 -0.003965 

0.008873 0.001292 0.038760 
0.001292 0.000693 0.052107 
0.038760 0.052107 0.004185 

0.011826 -0.001105 0.069239 
-0.001105 -0.008305 0.055398 
0.069239 0.055398 -0.000426 

-0.001851 -0.004913 0.093848 
-0.004913 -0.006634 0.070224 
0.093848 0.070224 -0.011716 

-0.012012 -0.008241 0.080343 
-0.008241 -0.002157 0.076115 
0.080343 0.076115 0.009716 

-0.012021 -0.000174 0.065355 
-0.000174 0.004917 0.052570 
0.065355 0.052570 -0.007809 

-0.011857 -0.010262 0.039175 
-0.010262 0.003573 0.057345 
0.039175 0.057345 0.000911 

-0.003168 -0.003044 0.014826 
-0.003044 0.000664 0.009040 
0.014826 0.009040 -0.001593 

-0.003168 -0.003545 0.008714 
-0.003545 -0.001858 0.001773 
0.008714 0.001773 0.002999 

0.006135 0.003024 0.011336 
0.003024 -0.001504 0.002778 
0.011336 0.002778 -0.001932 

0.010968 0.007279 0.022487 
0.007279 -0.000572 0.007762 
0.022487 0.007762 -0.000454 

0.003406 0.001012 0.050635 
0.001012 0.003122 0.029475 
0.050635 0.029475 0.006117 

-0.000660 0.002178 0.057497 
0.002178 0.007033 0.032414 
0.057497 0.032414 -0.001502 

0.001033 0.008746 0.040860 
0.008746 0.006788 0.042364 
0.040860 0.042364 -0.008060 

0.006141 -0.001274 0.044017 
-0.001274 -0.005497 0.075260 
0.044017 0.075260 0.009120 

0.004583 0.003154 0.067162 
0.003154 -0.007081 0.055869 
0.067162 0.055869 -0.004123 

-0.007397 -0.004982 0.076425 
-0.004982 -0.001935 0.081611 
0.076425 0.081611 -0.006473 

-0.005447 -0.005405 0.048446 
-0.005405 0.000227 0.070442 
0.048446 0.070442 0.006351 

0.000120 0.004117 0.047254 
0.004117 -0.001596 0.041145 
0.047254 0.041145 -0.004478 

-0.004715 0.011893 0.044748 
0.011893 -0.000383 0.032043 
0.044748 0.032043 0.002749 

-0.001788 0.003974 0.027448 
0.003974 0.001721 0.076889 
0.027448 0.076889 0.001245 

0.003598 -0.007488 0.030181 
-0.007488 -0.004518 0.082476 
0.030181 0.082476 0.004531 

0.004621 0.004404 0.051656 
0.004404 -0.005910 0.023491 
0.051656 0.023491 0.006017 

0.004014 -0.001388 0.050382 
-0.001388 -0.008242 0.066071 
0.050382 0.066071 -0.005060 

0.000394 0.004420 0.062968 
0.004420 -0.007543 0.035300 
0.062968 0.035300 0.004679 

-0.002705 0.000279 0.062665 
0.000279 -0.003756 0.066217 
0.062665 0.066217 -0.006325 

-0.001559 -0.002663 0.041474 
-0.002663 0.000284 0.063028 
0.041474 0.063028 0.005291 

0.002369 0.004041 0.056393 
0.004041 0.003925 0.032890 
0.056393 0.032890 0.004659 

0.005177 0.001697 0.055106 
0.001697 -0.002370 0.039015 
0.055106 0.039015 -0.008678 

-0.002050 -0.006314 0.057421 
-0.006314 -0.006142 0.074039 
0.057421 0.074039 -0.003793 

-0.012356 -0.007071 0.069754 
-0.007071 0.002256 0.045335 
0.069754 0.045335 0.002366 

-0.011575 -0.014624 0.046661 
-0.014624 -0.000921 0.068703 
0.046661 0.068703 -0.003156 

-0.004169 -0.004182 0.017622 
-0.004182 -0.002557 0.009933 
0.017622 0.009933 -0.001935 

-0.004169 -0.004479 0.009171 
-0.004479 -0.000442 -0.000495 
0.009171 -0.000495 0.003509 

0.005377 0.001413 0.008818 
0.001413 -0.000833 0.002086 
0.008818 0.002086 -0.008096 

0.007822 0.006269 0.028643 
0.006269 0.001579 0.004493 
0.028643 0.004493 0.008178 

0.004584 0.000105 0.053497 
0.000105 0.006417 0.037517 
0.053497 0.037517 -0.000770 

0.002297 -0.002164 0.051464 
-0.002164 0.003106 0.047661 
0.051464 0.047661 -0.005478 

0.002357 -0.002176 0.055430 
-0.002176 -0.001722 0.047376 
0.055430 0.047376 0.011236 

0.001811 -0.007883 0.072307 
-0.007883 -0.000503 0.069535 
0.072307 0.069535 -0.005538 

-0.000838 -0.001173 0.066039 
-0.001173 0.005140 0.033004 
0.066039 0.033004 -0.004649 

0.002532 -0.009621 0.057501 
-0.009621 -0.005476 0.064661 
0.057501 0.064661 -0.001008 

-0.000747 -0.013625 0.071835 
-0.013625 -0.010299 0.076066 
0.071835 0.076066 -0.004356 

-0.005095 -0.001043 0.065371 
-0.001043 -0.001998 0.032639 
0.065371 0.032639 -0.000091 

-0.002185 0.010959 0.051707 
0.010959 0.001261 0.038145 
0.051707 0.038145 -0.003232 

-0.000552 -0.000124 0.049856 
-0.000124 -0.006850 0.088531 
0.049856 0.088531 0.002464 

-0.000439 -0.005381 0.053966 
-0.005381 -0.007382 0.080771 
0.053966 0.080771 0.001945 

0.002752 0.009025 0.037439 
0.009025 0.000590 0.023904 
0.037439 0.023904 -0.009692 

0.002660 0.004074 0.042233 
0.004074 -0.004086 0.045124 
0.042233 0.045124 0.007826 

0.002222 0.009305 0.063449 
0.009305 0.002561 0.019317 
0.063449 0.019317 -0.004620 

0.001950 0.000785 0.053903 
0.000785 -0.004993 0.059128 
0.053903 0.059128 -0.005975 

-0.004461 -0.002500 0.062285 
-0.002500 -0.006165 0.065440 
0.062285 0.065440 0.005150 

-0.006964 0.004327 0.057146 
0.004327 0.004943 0.043862 
0.057146 0.043862 -0.007529 

0.000239 0.008533 0.029744 
0.008533 0.007794 0.036823 
0.029744 0.036823 0.003569 

-0.001316 0.005416 0.038226 
0.005416 0.004363 0.039278 
0.038226 0.039278 0.004088 

-0.006057 -0.002855 0.051565 
-0.002855 0.000252 0.063693 
0.051565 0.063693 0.010405 

-0.005229 -0.010230 0.038399 
-0.010230 -0.006297 0.065863 
0.038399 0.065863 -0.013163 

-0.004763 -0.001833 0.015911 
-0.001833 -0.002678 0.004485 
0.015911 0.004485 0.004735 

-0.004763 -0.002439 0.013203 
-0.002439 0.001770 -0.000233 
0.013203 -0.000233 -0.000473 

0.003060 0.003727 0.010968 
0.003727 0.000521 0.000174 
0.010968 0.000174 -0.001353 

0.004665 0.010951 0.020851 
0.010951 0.001948 0.008066 
0.020851 0.008066 -0.000585 

0.003048 0.002898 0.028497 
0.002898 0.001700 0.054833 
0.028497 0.054833 0.003358 

0.004134 -0.000506 0.032230 
-0.000506 -0.001469 0.054333 
0.032230 0.054333 0.004012 

0.001606 -0.001264 0.045645 
-0.001264 -0.001701 0.060014 
0.045645 0.060014 0.004033 

-0.004685 -0.003556 0.048619 
-0.003556 -0.001026 0.059627 
0.048619 0.059627 -0.005126 

-0.003899 0.001607 0.028613 
0.001607 0.005348 0.044077 
0.028613 0.044077 0.000813 

0.009284 0.000081 0.016030 
0.000081 -0.003968 0.057354 
0.016030 0.057354 0.007968 

0.007035 -0.005256 0.046185 
-0.005256 -0.006797 0.039987 
0.046185 0.039987 0.000923 

-0.002750 -0.003318 0.065961 
-0.003318 -0.000363 0.033175 
0.065961 0.033175 -0.001199 

0.002359 0.004530 0.051046 
0.004530 -0.000412 0.033203 
0.051046 0.033203 -0.003198 

0.008248 -0.005675 0.056627 
-0.005675 -0.008280 0.069275 
0.056627 0.069275 -0.003099 

0.001492 -0.013841 0.078376 
-0.013841 -0.004985 0.062386 
0.078376 0.062386 -0.005143 

-0.000466 -0.005511 0.079454 
-0.005511 0.000605 0.023708 
0.079454 0.023708 0.004303 

-0.002936 -0.001610 0.078274 
-0.001610 0.001769 0.032372 
0.078274 0.032372 -0.008708 

-0.004960 0.000303 0.062704 
0.000303 0.007320 0.030947 
0.062704 0.030947 0.010187 

0.006316 -0.002307 0.062549 
-0.002307 0.001164 0.038793 
0.062549 0.038793 -0.000959 

0.002823 -0.006714 0.075114 
-0.006714 -0.006410 0.050662 
0.075114 0.050662 -0.003456 

-0.005722 -0.007803 0.081253 
-0.007803 -0.003475 0.056145 
0.081253 0.056145 0.010209 

-0.007080 -0.003336 0.078918 
-0.003336 0.004406 0.057488 
0.078918 0.057488 -0.003912 

-0.004036 0.000765 0.051285 
0.000765 0.007394 0.058952 
0.051285 0.058952 -0.001601 

-0.000944 -0.002940 0.042053 
-0.002940 -0.004119 0.075592 
0.042053 0.075592 0.003038 

-0.006723 -0.009174 0.058160 
-0.009174 -0.004491 0.033988 
0.058160 0.033988 -0.003814 

-0.005977 -0.002908 0.032161 
-0.002908 0.002820 0.004616 
0.032161 0.004616 -0.006814 

-0.005977 -0.002455 0.010397 
-0.002455 0.001228 0.002426 
0.010397 0.002426 0.006910 

0.003052 0.004525 0.007326 
0.004525 0.001011 0.001211 
0.007326 0.001211 -0.007442 

0.005879 0.011383 0.021647 
0.011383 -0.001512 0.008144 
0.021647 0.008144 0.007884 

0.000761 0.002552 0.045988 
0.002552 -0.003013 0.063776 
0.045988 0.063776 -0.003029 

-0.001569 0.002797 0.035398 
0.002797 0.002483 0.055208 
0.035398 0.055208 -0.007228 

0.003261 0.004229 0.028122 
0.004229 0.002011 0.049306 
0.028122 0.049306 -0.006780 

0.001986 0.003785 0.030924 
0.003785 -0.005699 0.057436 
0.030924 0.057436 -0.002210 

0.001091 0.001363 0.035372 
0.001363 -0.005123 0.070402 
0.035372 0.070402 0.012497 

0.000245 0.000914 0.050237 
0.000914 -0.000008 0.061393 
0.050237 0.061393 -0.008533 

-0.001429 0.002353 0.037388 
0.002353 0.006418 0.030248 
0.037388 0.030248 0.005322 

0.002657 0.004853 0.036187 
0.004853 -0.000240 0.033498 
0.036187 0.033498 -0.003316 

0.001080 0.005756 0.035156 
0.005756 -0.001989 0.039439 
0.035156 0.039439 0.005990 

0.002726 0.000865 0.047399 
0.000865 0.000274 0.046285 
0.047399 0.046285 0.008696 

0.003919 -0.005875 0.047809 
-0.005875 0.001593 0.044213 
0.047809 0.044213 -0.009040 

0.002699 -0.002408 0.039586 
-0.002408 0.003190 0.031508 
0.039586 0.031508 0.004878 

-0.000967 0.001243 0.063080 
0.001243 0.003408 0.025515 
0.063080 0.025515 0.005622 

-0.006706 -0.003397 0.066943 
-0.003397 0.004581 0.064381 
0.066943 0.064381 -0.003661 

-0.003842 -0.001475 0.041508 
-0.001475 0.001460 0.051279 
0.041508 0.051279 0.002902 

0.002531 0.006292 0.034684 
0.006292 -0.004227 0.033452 
0.034684 0.033452 -0.000178 

0.002325 0.005048 0.036451 
0.005048 -0.001115 0.055857 
0.036451 0.055857 -0.009831 

0.000716 0.002167 0.035448 
0.002167 -0.002205 0.066337 
0.035448 0.066337 0.007103 

0.004816 -0.003597 0.047887 
-0.003597 -0.001751 0.074240 
0.047887 0.074240 0.002400 

-0.003718 -0.009281 0.070069 
-0.009281 -0.004973 0.058622 
0.070069 0.058622 -0.002120 

-0.013307 -0.011523 0.062341 
-0.011523 0.002119 0.034966 
0.062341 0.034966 0.009641 

-0.005071 -0.004735 0.029603 
-0.004735 0.000910 0.009846 
0.029603 0.009846 -0.009673 

-0.005071 -0.004548 0.010667 
-0.004548 -0.000693 0.002252 
0.010667 0.002252 0.008289 

0.003988 0.003549 0.008853 
0.003549 -0.000540 0.002199 
0.008853 0.002199 -0.005703 

0.008459 0.011245 0.020946 
0.011245 -0.001720 0.008400 
0.020946 0.008400 0.005959 

0.002832 0.005330 0.050541 
0.005330 -0.002971 0.043456 
0.050541 0.043456 -0.004783 

-0.003799 0.002439 0.043270 
0.002439 0.002765 0.047838 
0.043270 0.047838 -0.009489 

0.002912 0.003284 0.023163 
0.003284 0.003030 0.042699 
0.023163 0.042699 0.007954 

0.009177 0.004879 0.039487 
0.004879 -0.002457 0.038832 
0.039487 0.038832 -0.000880 

0.001746 -0.003178 0.067241 
-0.003178 -0.003905 0.066233 
0.067241 0.066233 -0.001742 

-0.004502 -0.002715 0.068062 
-0.002715 -0.002436 0.045127 
0.068062 0.045127 -0.008272 

-0.002287 -0.000689 0.040528 
-0.000689 0.000857 0.056355 
0.040528 0.056355 -0.004017 

0.001994 0.007361 0.037501 
0.007361 0.001550 0.028660 
0.037501 0.028660 0.007514 

-0.000734 0.008194 0.063778 
0.008194 0.003442 0.040572 
0.063778 0.040572 -0.001820 

-0.002241 0.002911 0.048902 
0.002911 0.004566 0.063609 
0.048902 0.063609 -0.011785 

0.001046 -0.001463 0.031996 
-0.001463 0.002903 0.050323 
0.031996 0.050323 0.009992 

0.000978 0.000574 0.051725 
0.000574 0.007736 0.039048 
0.051725 0.039048 -0.000110 

-0.000399 0.005626 0.050351 
0.005626 0.006380 0.035078 
0.050351 0.035078 0.002571 

0.002031 0.000624 0.049350 
0.000624 0.001618 0.059493 
0.049350 0.059493 -0.009947 

-0.000160 -0.002579 0.047535 
-0.002579 -0.003257 0.055709 
0.047535 0.055709 -0.001482 

-0.003018 0.007920 0.057927 
0.007920 -0.000907 0.025802 
0.057927 0.025802 0.004022 

0.000571 0.005550 0.050013 
0.005550 0.003531 0.040779 
0.050013 0.040779 -0.000689 

0.003283 0.001038 0.051713 
0.001038 -0.001149 0.058945 
0.051713 0.058945 -0.009954 

-0.001433 -0.007303 0.050462 
-0.007303 -0.004010 0.078886 
0.050462 0.078886 0.006075 

-0.006191 -0.003376 0.059067 
-0.003376 -0.001309 0.042370 
0.059067 0.042370 0.001872 

-0.009946 -0.009711 0.044629 
-0.009711 0.000903 0.054610 
0.044629 0.054610 -0.013428 

-0.004697 -0.004076 0.016874 
-0.004076 -0.002487 0.007862 
0.016874 0.007862 0.003667 

-0.004697 -0.003077 0.012157 
-0.003077 -0.001361 0.001348 
0.012157 0.001348 0.000270 

0.005579 0.002056 0.008201 
0.002056 -0.000725 0.001978 
0.008201 0.001978 -0.006160 

0.009872 0.008203 0.027111 
0.008203 -0.000752 0.005725 
0.027111 0.005725 0.005595 

0.004601 0.003815 0.054136 
0.003815 0.000006 0.034895 
0.054136 0.034895 0.003606 

0.000036 -0.003695 0.053836 
-0.003695 0.000875 0.053670 
0.053836 0.053670 0.003430 

-0.001646 -0.007523 0.059416 
-0.007523 0.001498 0.065830 
0.059416 0.065830 0.008470 

0.000558 -0.001167 0.060647 
-0.001167 0.003046 0.037555 
0.060647 0.037555 0.002955 

0.002916 -0.004366 0.054483 
-0.004366 -0.000386 0.051940 
0.054483 0.051940 -0.005253 

0.005008 -0.004247 0.048204 
-0.004247 -0.007104 0.042316 
0.048204 0.042316 0.004631 

0.003047 -0.008478 0.064994 
-0.008478 -0.004584 0.053994 
0.064994 0.053994 0.005660 

-0.002821 -0.002796 0.081327 
-0.002796 0.005303 0.031023 
0.081327 0.031023 -0.001003 

-0.002390 0.002187 0.065394 
0.002187 0.004844 0.040980 
0.065394 0.040980 -0.005157 

-0.002751 -0.001859 0.055548 
-0.001859 0.000996 0.055323 
0.055548 0.055323 -0.000442 

-0.003310 -0.002174 0.059373 
-0.002174 0.006719 0.059837 
0.059373 0.059837 0.002220 

0.001103 -0.001498 0.048314 
-0.001498 0.006107 0.051392 
0.048314 0.051392 -0.003925 

0.003740 0.001551 0.050425 
0.001551 -0.000423 0.053533 
0.050425 0.053533 0.003990 

0.003084 -0.003679 0.062731 
-0.003679 -0.001523 0.051906 
0.062731 0.051906 0.002294 

0.000187 -0.002404 0.062987 
-0.002404 -0.003016 0.043594 
0.062987 0.043594 0.002205 

-0.006616 0.007705 0.067601 
0.007705 0.004033 0.024152 
0.067601 0.024152 -0.005877 

-0.005991 0.002189 0.043622 
0.002189 0.007829 0.061576 
0.043622 0.061576 0.002379 

0.004371 0.003854 0.033225 
0.003854 -0.002318 0.044980 
0.033225 0.044980 0.011241 

0.001227 -0.003085 0.056310 
-0.003085 -0.006034 0.074540 
0.056310 0.074540 -0.007781 

-0.008549 0.000292 0.049056 
0.000292 -0.001033 0.041703 
0.049056 0.041703 -0.000002 

-0.008495 -0.006327 0.037011 
-0.006327 -0.001502 0.040768 
0.037011 0.040768 0.003972 

-0.002699 -0.000489 0.021607 
-0.000489 -0.000323 0.005045 
0.021607 0.005045 -0.004101 

-0.002699 -0.001838 0.010624 
-0.001838 -0.000541 0.000881 
0.010624 0.000881 0.004625 

0.004143 0.002244 0.009972 
0.002244 0.000331 0.000959 
0.009972 0.000959 -0.004069 

0.007351 0.008883 0.020982 
0.008883 0.001427 0.004874 
0.020982 0.004874 0.003030 

0.002603 0.005598 0.043071 
0.005598 0.001993 0.043762 
0.043071 0.043762 0.000591 

0.000277 0.001849 0.043216 
0.001849 -0.002776 0.069432 
0.043216 0.069432 -0.003944 

-0.000721 0.001005 0.033652 
0.001005 -0.001727 0.070747 
0.033652 0.070747 -0.007556 

-0.001260 0.004470 0.027789 
0.004470 0.002965 0.051808 
0.027789 0.051808 -0.003771 

0.001575 -0.000375 0.027501 
-0.000375 0.003183 0.047518 
0.027501 0.047518 0.003741 

0.004604 0.002587 0.040689 
0.002587 0.002425 0.034617 
0.040689 0.034617 0.000118 

0.002444 -0.002385 0.048990 
-0.002385 0.004818 0.043009 
0.048990 0.043009 -0.007968 

0.001434 -0.003928 0.043632 
-0.003928 0.001433 0.046017 
0.043632 0.046017 0.004688 

0.001216 -0.001738 0.056724 
-0.001738 0.000972 0.047693 
0.056724 0.047693 0.002521 

-0.001641 -0.001294 0.061804 
-0.001294 -0.001012 0.059886 
0.061804 0.059886 0.005867 

-0.004197 -0.002717 0.056487 
-0.002717 -0.001343 0.074533 
0.056487 0.074533 -0.010037 

0.000628 -0.001454 0.032522 
-0.001454 -0.000401 0.070108 
0.032522 0.070108 0.005198 

0.007536 0.003932 0.040738 
0.003932 -0.000998 0.044260 
0.040738 0.044260 0.001137 

0.005868 -0.007231 0.061725 
-0.007231 -0.005185 0.067540 
0.061725 0.067540 0.006579 

-0.002335 -0.004173 0.074313 
-0.004173 -0.000431 0.042623 
0.074313 0.042623 -0.001384 

-0.007388 0.004963 0.071840 
0.004963 0.009030 0.021831 
0.071840 0.021831 0.004644 

-0.002016 -0.004446 0.056813 
-0.004446 0.001810 0.080554 
0.056813 0.080554 -0.013364 

0.002701 0.000792 0.042134 
0.000792 0.000819 0.055015 
0.042134 0.055015 0.004024 

0.003277 -0.002323 0.059865 
-0.002323 -0.003061 0.047699 
0.059865 0.047699 0.000852 

-0.005873 -0.003782 0.068100 
-0.003782 -0.005793 0.045449 
0.068100 0.045449 0.000651 

-0.011156 -0.008950 0.060148 
-0.008950 -0.000824 0.048583 
0.060148 0.048583 -0.000058 

-0.005398 -0.001984 0.029300 
-0.001984 0.001624 0.004907 
0.029300 0.004907 -0.005963 

-0.005398 -0.002480 0.011399 
-0.002480 0.001696 -0.000128 
0.011399 -0.000128 0.006334 

0.002904 0.003053 0.009251 
0.003053 -0.000102 0.001727 
0.009251 0.001727 -0.003673 

0.006927 0.011412 0.019989 
0.011412 0.000786 0.006608 
0.019989 0.006608 0.002713 

0.008371 0.008697 0.031499 
0.008697 -0.001980 0.042055 
0.031499 0.042055 -0.000591 

0.005563 0.004775 0.048458 
0.004775 -0.002783 0.053569 
0.048458 0.053569 -0.003832 

-0.000599 -0.000933 0.060922 
-0.000933 0.003592 0.049900 
0.060922 0.049900 -0.001026 

-0.003084 -0.003219 0.058192 
-0.003219 0.007002 0.043038 
0.058192 0.043038 0.000408 

-0.003318 -0.007083 0.061472 
-0.007083 0.002080 0.056476 
0.061472 0.056476 0.003977 

-0.004651 0.003067 0.050385 
0.003067 0.004645 0.032723 
0.050385 0.032723 -0.010666 

-0.002261 0.002108 0.022638 
0.002108 0.008197 0.045943 
0.022638 0.045943 0.002093 

0.003489 0.005155 0.025583 
0.005155 0.002104 0.048729 
0.025583 0.048729 0.002629 

0.004233 0.003601 0.037576 
0.003601 -0.001002 0.053472 
0.037576 0.053472 0.000741 

0.003587 -0.000332 0.039846 
-0.000332 0.000380 0.063981 
0.039846 0.063981 -0.002233 

0.002008 -0.006485 0.058536 
-0.006485 -0.005273 0.059423 
0.058536 0.059423 0.010376 

-0.000602 -0.009456 0.070582 
-0.009456 -0.005506 0.071035 
0.070582 0.071035 -0.013744 

-0.000141 -0.003435 0.048682 
-0.003435 -0.001691 0.047193 
0.048682 0.047193 -0.000974 

0.003676 -0.005609 0.047725 
-0.005609 -0.002511 0.060629 
0.047725 0.060629 -0.002071 

-0.003550 -0.001444 0.065211 
-0.001444 0.003038 0.033126 
0.065211 0.033126 -0.005376 

-0.002005 0.001626 0.042921 
0.001626 0.005679 0.049051 
0.042921 0.049051 -0.000262 

0.002673 -0.003317 0.046742 
-0.003317 -0.005484 0.065075 
0.046742 0.065075 0.007858 

-0.000037 -0.000291 0.060529 
-0.000291 -0.000268 0.050559 
0.060529 0.050559 -0.006687 

0.001125 -0.000075 0.044738 
-0.000075 -0.002577 0.053340 
0.044738 0.053340 0.000956 

-0.001944 0.003186 0.049579 
0.003186 -0.005014 0.032436 
0.049579 0.032436 0.005166 

-0.010161 -0.008432 0.063506 
-0.008432 -0.000272 0.041703 
0.063506 0.041703 -0.003017 

-0.006390 -0.004506 0.033879 
-0.004506 0.002020 0.007543 
0.033879 0.007543 -0.006756 

-0.006390 -0.004035 0.011923 
-0.004035 0.001548 0.002089 
0.011923 0.002089 0.006773 

0.005634 0.003785 0.009503 
0.003785 -0.000290 0.000163 
0.009503 0.000163 -0.003024 

0.012978 0.008759 0.021872 
0.008759 -0.002593 0.008307 
0.021872 0.008307 0.000896 

0.007977 0.003649 0.050741 
0.003649 -0.002803 0.047408 
0.050741 0.047408 0.007052 

-0.002523 0.001541 0.070149 
0.001541 0.004807 0.037463 
0.070149 0.037463 0.001156 

-0.007507 -0.001216 0.059030 
-0.001216 0.006552 0.061448 
0.059030 0.061448 -0.001407 

-0.001968 0.001968 0.030161 
0.001968 0.001978 0.066666 
0.030161 0.066666 0.000416 

0.003012 0.003903 0.025324 
0.003903 -0.000357 0.066437 
0.025324 0.066437 0.006975 

-0.000101 0.006929 0.045935 
0.006929 0.005161 0.035246 
0.045935 0.035246 0.007759 

-0.000710 -0.004176 0.056121 
-0.004176 0.003150 0.070438 
0.056121 0.070438 0.004373 

-0.000421 -0.000712 0.053271 
-0.000712 0.000452 0.047472 
0.053271 0.047472 -0.007795 

-0.003158 0.001968 0.044548 
0.001968 0.000380 0.060443 
0.044548 0.060443 0.002936 

-0.001917 -0.000801 0.042377 
-0.000801 0.001483 0.060348 
0.042377 0.060348 -0.003625 

0.001283 -0.001983 0.029718 
-0.001983 0.001767 0.062353 
0.029718 0.062353 -0.005213 

0.003027 -0.003685 0.029418 
-0.003685 -0.003690 0.042242 
0.029418 0.042242 0.005195 

0.001219 -0.003573 0.046258 
-0.003573 -0.003691 0.043085 
0.046258 0.043085 0.000011 

-0.001008 -0.004119 0.048861 
-0.004119 0.002156 0.039848 
0.048861 0.039848 -0.003958 

-0.000216 0.000884 0.037120 
0.000884 0.000707 0.037326 
0.037120 0.037326 0.001385 

0.006080 -0.001912 0.035805 
-0.001912 -0.002696 0.069279 
0.035805 0.069279 0.008536 

0.005829 -0.001988 0.063523 
-0.001988 -0.004795 0.059833 
0.063523 0.059833 0.000348 

0.002739 -0.004098 0.061518 
-0.004098 -0.007617 0.058162 
0.061518 0.058162 0.001435 

0.000711 -0.004554 0.065163 
-0.004554 -0.005883 0.050776 
0.065163 0.050776 0.000958 

-0.008393 -0.001003 0.075880 
-0.001003 0.002660 0.022495 
0.075880 0.022495 -0.000934 

-0.012873 -0.012164 0.060419 
-0.012164 0.002020 0.046883 
0.060419 0.046883 0.002635 

-0.005448 -0.005670 0.028276 
-0.005670 0.000307 0.010354 
0.028276 0.010354 -0.005913 

-0.005448 -0.004848 0.011948 
-0.004848 0.000169 0.002706 
0.011948 0.002706 0.006133 

0.005249 0.001536 0.008706 
0.001536 -0.001181 0.001518 
0.008706 0.001518 -0.006521 

0.012276 0.007362 0.020742 
0.007362 -0.000985 0.004223 
0.020742 0.004223 0.006791 

0.004032 0.001764 0.058082 
0.001764 0.004016 0.035291 
0.058082 0.035291 -0.008129 

-0.001740 -0.001982 0.054752 
-0.001982 0.003730 0.063451 
0.054752 0.063451 0.002009 

0.004858 -0.001771 0.041869 
-0.001771 -0.005133 0.078772 
0.041869 0.078772 0.003232 

0.003258 0.000019 0.066019 
0.000019 -0.010296 0.071437 
0.066019 0.071437 0.001924 

-0.005894 0.005064 0.074597 
0.005064 -0.000455 0.063033 
0.074597 0.063033 -0.015914 

-0.006197 0.009735 0.037290 
0.009735 0.009903 0.055075 
0.037290 0.055075 -0.004433 

-0.001313 0.000553 0.028217 
0.000553 -0.000902 0.079597 
0.028217 0.079597 0.006348 

-0.000349 0.004188 0.046392 
0.004188 -0.000706 0.043589 
0.046392 0.043589 0.007696 

-0.001188 0.005751 0.041467 
0.005751 0.001347 0.048965 
0.041467 0.048965 -0.018122 

-0.002897 0.002818 0.026778 
0.002818 -0.000549 0.059111 
0.026778 0.059111 0.011219 

-0.000952 0.002250 0.039647 
0.002250 -0.002335 0.056901 
0.039647 0.056901 -0.002856 

-0.000527 0.003965 0.026751 
0.003965 0.002788 0.045186 
0.026751 0.045186 -0.002369 

-0.000533 0.007646 0.024663 
0.007646 0.001573 0.035096 
0.024663 0.035096 0.003873 

-0.001108 0.003674 0.028430 
0.003674 0.001663 0.048322 
0.028430 0.048322 0.002183 

0.005191 0.008475 0.023556 
0.008475 -0.003513 0.046567 
0.023556 0.046567 0.001524 

0.007522 0.003166 0.036594 
0.003166 -0.005465 0.065808 
0.036594 0.065808 -0.007842 

0.006236 -0.000171 0.039921 
-0.000171 -0.002382 0.052070 
0.039921 0.052070 -0.002788 

0.004299 -0.003339 0.059284 
-0.003339 -0.005026 0.046792 
0.059284 0.046792 0.000957 

-0.006304 -0.005305 0.072206 
-0.005305 -0.000760 0.036275 
0.072206 0.036275 -0.003596 

-0.011476 -0.003578 0.055874 
-0.003578 0.005892 0.025406 
0.055874 0.025406 0.003967 

-0.007683 -0.011580 0.043427 
-0.011580 -0.000989 0.050109 
0.043427 0.050109 -0.007101 

-0.003804 -0.005452 0.021813 
-0.005452 -0.002879 0.010095 
0.021813 0.010095 -0.002016 

-0.003804 -0.004537 0.010313 
-0.004537 -0.000483 0.003190 
0.010313 0.003190 0.003601 

0.004472 0.000673 0.008189 
0.000673 -0.001916 0.000011 
0.008189 0.000011 -0.002365 

0.002781 0.008282 0.020802 
0.008282 0.003125 0.003827 
0.020802 0.003827 0.000385 

0.002673 0.005342 0.029305 
0.005342 0.004962 0.031608 
0.029305 0.031608 0.010424 

0.011297 0.001990 0.033074 
0.001990 -0.007111 0.074712 
0.033074 0.074712 -0.012991 

0.012195 -0.001114 0.037316 
-0.001114 -0.009212 0.068019 
0.037316 0.068019 -0.001771 

0.006851 -0.000216 0.071189 
-0.000216 -0.004893 0.043216 
0.071189 0.043216 0.005684 

-0.003980 -0.000712 0.090582 
-0.000712 -0.005180 0.044782 
0.090582 0.044782 0.001533 

-0.007759 -0.005236 0.079439 
-0.005236 -0.005549 0.078231 
0.079439 0.078231 0.003475 

-0.004200 -0.004633 0.067598 
-0.004633 -0.001530 0.073846 
0.067598 0.073846 -0.006672 

-0.003686 0.001981 0.049912 
0.001981 0.001845 0.052710 
0.049912 0.052710 -0.003808 

0.001274 0.005783 0.040883 
0.005783 -0.004477 0.045728 
0.040883 0.045728 0.011098 

0.003092 0.002644 0.049539 
0.002644 -0.001708 0.069036 
0.049539 0.069036 -0.002667 

-0.001810 0.001524 0.057352 
0.001524 -0.003030 0.057342 
0.057352 0.057342 0.007092 

-0.002790 0.001738 0.054831 
0.001738 0.000039 0.056946 
0.054831 0.056946 -0.000309 

-0.001842 0.007016 0.044101 
0.007016 0.000959 0.034885 
0.044101 0.034885 -0.002093 

0.000340 0.001866 0.046141 
0.001866 -0.004146 0.062445 
0.046141 0.062445 0.004031 

0.004271 0.007113 0.044134 
0.007113 -0.001945 0.036473 
0.044134 0.036473 -0.006423 

0.003161 -0.000348 0.048295 
-0.000348 -0.001812 0.043543 
0.048295 0.043543 0.008152 

-0.000028 -0.008075 0.069075 
-0.008075 0.000357 0.043982 
0.069075 0.043982 0.002148 

-0.003968 -0.005367 0.064896 
-0.005367 0.001670 0.030610 
0.064896 0.030610 -0.005257 

-0.007786 0.000217 0.047093 
0.000217 0.001543 0.030697 
0.047093 0.030697 -0.004115 

-0.007168 0.000342 0.029712 
0.000342 -0.001382 0.048761 
0.029712 0.048761 0.004695 

-0.004800 -0.005464 0.024299 
-0.005464 -0.001613 0.039122 
0.024299 0.039122 0.003134 

-0.001974 -0.000763 0.016235 
-0.000763 0.000409 0.005434 
0.016235 0.005434 -0.001134 

-0.001974 -0.002286 0.009625 
-0.002286 -0.000266 0.003516 
0.009625 0.003516 0.002054 

0.002457 0.003245 0.006988 
0.003245 0.000039 -0.002883 
0.006988 -0.002883 0.000398 

0.003888 0.010365 0.013240 
0.010365 -0.000534 0.006299 
0.013240 0.006299 -0.002472 

0.010681 0.003638 0.011652 
0.003638 -0.005146 0.065569 
0.011652 0.065569 0.006139 

0.014003 0.002412 0.037167 
0.002412 -0.011920 0.044252 
0.037167 0.044252 0.001642 

0.002747 -0.002387 0.067926 
-0.002387 -0.008120 0.047827 
0.067926 0.047827 0.004239 

-0.001155 0.001577 0.064679 
0.001577 -0.000996 0.048239 
0.064679 0.048239 -0.004621 

0.000708 0.003725 0.046615 
0.003725 -0.002512 0.047340 
0.046615 0.047340 0.002800 

-0.000754 -0.004266 0.067563 
-0.004266 -0.012165 0.071430 
0.067563 0.071430 0.007379 

-0.002985 -0.007601 0.068666 
-0.007601 -0.006110 0.060392 
0.068666 0.060392 -0.010288 

0.001402 -0.004957 0.045610 
-0.004957 -0.004150 0.050744 
0.045610 0.050744 -0.000193 

0.003213 0.001655 0.061639 
0.001655 -0.005374 0.048789 
0.061639 0.048789 0.000957 

0.001070 -0.004333 0.071746 
-0.004333 -0.004421 0.063218 
0.071746 0.063218 0.000821 

0.000666 -0.002864 0.072025 
-0.002864 -0.003212 0.049491 
0.072025 0.049491 -0.010723 

-0.003163 -0.006405 0.068248 
-0.006405 -0.002841 0.058394 
0.068248 0.058394 -0.004149 

-0.000243 -0.003689 0.059193 
-0.003689 -0.002617 0.042320 
0.059193 0.042320 0.007801 

-0.000542 -0.006835 0.072194 
-0.006835 -0.009005 0.052945 
0.072194 0.052945 -0.000425 

-0.005992 -0.002786 0.073721 
-0.002786 -0.003525 0.034609 
0.073721 0.034609 -0.004065 

-0.004250 -0.002382 0.040356 
-0.002382 0.001026 0.053624 
0.040356 0.053624 -0.005756 

-0.001449 -0.005679 0.033565 
-0.005679 0.000644 0.050294 
0.033565 0.050294 0.012402 

0.000477 -0.001146 0.051221 
-0.001146 -0.002745 0.036034 
0.051221 0.036034 -0.000524 

0.001061 0.003305 0.034854 
0.003305 -0.005038 0.031967 
0.034854 0.031967 -0.001253 

-0.003458 -0.001444 0.049238 
-0.001444 -0.002158 0.043534 
0.049238 0.043534 0.004499 

-0.009056 -0.010707 0.057004 
-0.010707 0.001061 0.040987 
0.057004 0.040987 -0.004435 

-0.005018 -0.005059 0.023385 
-0.005059 0.001060 0.008969 
0.023385 0.008969 -0.006676 

-0.005018 -0.003968 0.006626 
-0.003968 0.000027 0.002571 
0.006626 0.002571 0.006684 

0.002668 0.003331 0.002838 
0.003331 0.001427 -0.002687 
0.002838 -0.002687 -0.002776 

0.011330 0.007566 0.005756 
0.007566 -0.004506 0.005090 
0.005756 0.005090 0.002618 

0.012968 -0.005545 0.033966 
-0.005545 -0.013261 0.060892 
0.033966 0.060892 -0.002352 

0.006900 -0.004755 0.055135 
-0.004755 -0.008326 0.030620 
0.055135 0.030620 -0.000450 

0.004035 -0.004357 0.055606 
-0.004357 -0.009791 0.045475 
0.055606 0.045475 0.002235 

-0.003791 -0.003015 0.069821 
-0.003015 -0.010688 0.046760 
0.069821 0.046760 -0.002901 

-0.005927 -0.002021 0.058735 
-0.002021 -0.003700 0.047254 
0.058735 0.047254 -0.000612 

-0.000980 0.000456 0.048219 
0.000456 -0.006531 0.045842 
0.048219 0.045842 -0.006952 

-0.000014 -0.005882 0.035589 
-0.005882 -0.010921 0.056060 
0.035589 0.056060 0.001691 

0.003020 -0.004240 0.038056 
-0.004240 -0.009469 0.046457 
0.038056 0.046457 0.011269 

0.003547 0.002505 0.057659 
0.002505 -0.006983 0.032596 
0.057659 0.032596 -0.004507 

-0.000167 -0.004338 0.048130 
-0.004338 -0.008212 0.066337 
0.048130 0.066337 -0.002303 

-0.002215 -0.002016 0.047110 
-0.002016 -0.006082 0.035838 
0.047110 0.035838 0.014465 

-0.002638 -0.004864 0.059371 
-0.004864 -0.005645 0.044312 
0.059371 0.044312 -0.000341 

-0.001940 -0.006077 0.046697 
-0.006077 -0.004642 0.049022 
0.046697 0.049022 -0.007784 

-0.001752 -0.003784 0.035909 
-0.003784 -0.005143 0.028104 
0.035909 0.028104 0.001495 

-0.002560 -0.001473 0.045021 
-0.001473 -0.006669 0.026402 
0.045021 0.026402 0.004296 

-0.001946 -0.003417 0.042906 
-0.003417 -0.009280 0.053409 
0.042906 0.053409 -0.007136 

0.002221 -0.004353 0.028232 
-0.004353 -0.007246 0.060770 
0.028232 0.060770 -0.000665 

0.005455 0.001037 0.030127 
0.001037 -0.008907 0.035965 
0.030127 0.035965 -0.001772 

-0.002533 0.003941 0.049723 
0.003941 -0.005498 0.032250 
0.049723 0.032250 0.008091 

-0.008915 -0.000642 0.050089 
-0.000642 0.000586 0.034555 
0.050089 0.034555 -0.003139 

-0.008723 -0.009043 0.023435 
-0.009043 -0.001292 0.045961 
0.023435 0.045961 0.000620 

-0.002836 -0.002915 0.010464 
-0.002915 -0.001230 0.007634 
0.010464 0.007634 0.002399 

-0.002836 -0.003493 0.009447 
-0.003493 0.000548 0.002543 
0.009447 0.002543 -0.000491 

0.001147 0.001220 0.000868 
0.001220 0.000688 -0.000321 
0.000868 -0.000321 -0.001015 

0.008168 0.004281 0.000624 
0.004281 -0.001966 0.002000 
0.000624 0.002000 0.001278 

0.008713 -0.003913 0.018743 
-0.003913 -0.009172 0.020852 
0.018743 0.020852 -0.003460 

0.006868 -0.007233 0.030417 
-0.007233 -0.007514 0.024320 
0.030417 0.024320 -0.001682 

0.008720 -0.008532 0.036487 
-0.008532 -0.008818 0.025739 
0.036487 0.025739 -0.003925 

-0.000598 -0.009807 0.064407 
-0.009807 -0.010061 0.017981 
0.064407 0.017981 0.005532 

-0.007334 -0.014248 0.068607 
-0.014248 -0.008223 0.050847 
0.068607 0.050847 -0.000722 

-0.003117 -0.008008 0.044442 
-0.008008 -0.006957 0.026385 
0.044442 0.026385 -0.005661 

0.004137 -0.009751 0.030511 
-0.009751 -0.009978 0.041900 
0.030511 0.041900 -0.001578 

0.002725 -0.010954 0.047246 
-0.010954 -0.008650 0.039886 
0.047246 0.039886 0.001183 

0.001915 -0.007036 0.056385 
-0.007036 -0.007084 0.025573 
0.056385 0.025573 0.003510 

0.001143 -0.012552 0.060229 
-0.012552 -0.010527 0.046632 
0.060229 0.046632 -0.007550 

-0.003566 -0.012157 0.057579 
-0.012157 -0.006293 0.047190 
0.057579 0.047190 -0.001398 

-0.003358 -0.011804 0.048766 
-0.011804 -0.007370 0.044433 
0.048766 0.044433 0.004170 

-0.004629 -0.011836 0.051620 
-0.011836 -0.007759 0.033161 
0.051620 0.033161 -0.000628 

-0.005510 -0.007766 0.035832 
-0.007766 -0.003182 0.022048 
0.035832 0.022048 -0.005848 

0.001110 -0.002287 0.018286 
-0.002287 -0.004597 0.023667 
0.018286 0.023667 0.006003 

0.008087 -0.004466 0.030532 
-0.004466 -0.011129 0.027412 
0.030532 0.027412 -0.002048 

0.006508 -0.014620 0.041190 
-0.014620 -0.012717 0.049423 
0.041190 0.049423 0.000253 

0.002164 -0.010540 0.062354 
-0.010540 -0.006949 0.015136 
0.062354 0.015136 0.004626 

-0.006132 -0.007532 0.069314 
-0.007532 -0.003379 0.021637 
0.069314 0.021637 -0.010756 

-0.009429 -0.011594 0.048614 
-0.011594 -0.006454 0.050814 
0.048614 0.050814 0.005934 

-0.006397 -0.012844 0.034647 
-0.012844 -0.006277 0.043980 
0.034647 0.043980 -0.006433 

-0.003991 -0.004775 0.014741 
-0.004775 -0.000416 0.007218 
0.014741 0.007218 -0.001554 

-0.003991 -0.003706 0.005972 
-0.003706 0.000552 0.003467 
0.005972 0.003467 0.003081 

0.000100 0.000192 -0.000084 
0.000192 0.000074 -0.000147 
-0.000084 -0.000147 0.000289 

0.001148 0.001353 0.000492 
0.001353 -0.000021 0.001205 
0.000492 0.001205 -0.000512 

0.002639 0.000401 0.000093 
0.000401 -0.002390 0.001508 
0.000093 0.001508 0.001986 

0.002873 -0.002315 0.003332 
-0.002315 -0.003274 0.009423 
0.003332 0.009423 -0.001586 

0.000286 -0.002927 0.007326 
-0.002927 -0.002427 0.006092 
0.007326 0.006092 0.000228 

0.001542 0.000638 0.003095 
0.000638 -0.001455 0.005210 
0.003095 0.005210 0.001842 

0.000343 -0.005666 0.008291 
-0.005666 -0.005363 0.027248 
0.008291 0.027248 -0.008967 

-0.001904 -0.004217 0.008107 
-0.004217 -0.004398 0.014839 
0.008107 0.014839 0.003816 

0.001563 -0.002967 0.006837 
-0.002967 -0.003785 0.017010 
0.006837 0.017010 -0.002672 

0.000492 -0.003964 0.008098 
-0.003964 -0.003102 0.017319 
0.008098 0.017319 -0.004020 

-0.000422 -0.002202 0.007999 
-0.002202 -0.001884 0.016309 
0.007999 0.016309 -0.003336 

0.000290 -0.002860 0.006658 
-0.002860 -0.004733 0.015702 
0.006658 0.015702 0.000841 

0.000918 -0.004416 0.007558 
-0.004416 -0.004665 0.026127 
0.007558 0.026127 -0.005542 

-0.000210 -0.005552 0.010477 
-0.005552 -0.003780 0.026956 
0.010477 0.026956 -0.007844 

-0.002737 -0.004449 0.009048 
-0.004449 -0.003058 0.014824 
0.009048 0.014824 -0.000318 

-0.001847 -0.003064 0.006128 
-0.003064 -0.002483 0.014463 
0.006128 0.014463 0.000235 

-0.000334 -0.001243 0.005945 
-0.001243 -0.001381 0.014733 
0.005945 0.014733 -0.005041 

0.003378 -0.000384 0.002870 
-0.000384 -0.003241 0.009615 
0.002870 0.009615 0.002180 

0.003106 -0.006088 0.008587 
-0.006088 -0.004675 0.019495 
0.008587 0.019495 -0.006974 

-0.003593 -0.003564 0.010729 
-0.003564 -0.000576 0.006728 
0.010729 0.006728 -0.000039 

-0.000730 -0.000041 0.003029 
-0.000041 -0.002289 0.008086 
0.003029 0.008086 0.004567 

0.002420 -0.004100 0.006462 
-0.004100 -0.005289 0.029675 
0.006462 0.029675 -0.010421 

-0.001905 -0.007828 0.010978 
-0.007828 -0.005572 0.021379 
0.010978 0.021379 -0.001738 

-0.001854 -0.002756 0.007551 
-0.002756 -0.000743 0.007258 
0.007551 0.007258 0.000789 

-0.001854 -0.001859 0.005034 
-0.001859 0.000465 0.003799 
0.005034 0.003799 -0.000087 

-0.000194 0.000144 -0.000446 
0.000144 0.000074 -0.000173 
-0.000446 -0.000173 -0.000114 

-0.000250 0.000169 -0.000744 
0.000169 -0.000021 0.000473 
-0.000744 0.000473 0.000352 

0.000734 -0.000041 -0.000696 
-0.000041 -0.002390 0.002969 
-0.000696 0.002969 -0.000552 

0.000189 -0.001891 0.000005 
-0.001891 -0.003274 0.002121 
0.000005 0.002121 0.001776 

-0.001548 -0.002441 -0.000194 
-0.002441 -0.002427 0.004064 
-0.000194 0.004064 0.000992 

0.000530 -0.001316 -0.001345 
-0.001316 -0.001455 0.007171 
-0.001345 0.007171 -0.000404 

0.002726 -0.005183 -0.001169 
-0.005183 -0.005363 0.005312 
-0.001169 0.005312 0.007799 

0.000945 -0.003910 0.002015 
-0.003910 -0.004398 0.011295 
0.002015 0.011295 -0.001029 

-0.000837 -0.002626 0.003035 
-0.002626 -0.003785 0.008385 
0.003035 0.008385 0.003804 

-0.001045 -0.003355 0.001621 
-0.003355 -0.003102 0.006624 
0.001621 0.006624 0.004131 

-0.000720 -0.003627 0.000767 
-0.003627 -0.001884 0.007039 
0.000767 0.007039 0.003354 

0.000847 -0.002826 0.000162 
-0.002826 -0.004733 0.009962 
0.000162 0.009962 0.001797 

0.001735 -0.003973 0.000979 
-0.003973 -0.004665 0.008840 
0.000979 0.008840 0.005525 

0.000242 -0.005191 0.002831 
-0.005191 -0.003780 0.008338 
0.002831 0.008338 0.006659 

-0.000224 -0.004161 0.002631 
-0.004161 -0.003058 0.009948 
0.002631 0.009948 0.001986 

-0.000383 -0.002513 0.002883 
-0.002513 -0.002483 0.007258 
0.002883 0.007258 0.001402 

-0.000647 -0.002173 0.002474 
-0.002173 -0.001381 0.005790 
0.002474 0.005790 0.004437 

0.000212 -0.001101 0.001994 
-0.001101 -0.003241 0.007314 
0.001994 0.007314 -0.000245 

-0.001208 -0.004039 0.002048 
-0.004039 -0.004675 0.003568 
0.002048 0.003568 0.006075 

-0.001677 -0.004421 -0.000352 
-0.004421 -0.000576 0.006558 
-0.000352 0.006558 0.000736 

0.001427 -0.001542 -0.000364 
-0.001542 -0.002289 0.008723 
-0.000364 0.008723 -0.001131 

0.003630 -0.004242 0.000747 
-0.004242 -0.005289 0.006805 
0.000747 0.006805 0.008399 

0.001487 -0.005414 0.003693 
-0.005414 -0.005572 0.008778 
0.003693 0.008778 0.003098 

-0.000060 -0.002152 0.005485 
-0.002152 -0.000743 0.006344 
0.005485 0.006344 -0.000006 

-0.000060 -0.001255 0.004669 
-0.001255 0.000465 0.003057 
0.004669 0.003057 0.001566 

0.000350 0.002740 0.003084 
0.002740 -0.000322 0.002187 
0.003084 0.002187 -0.004159 

-0.002354 0.004551 -0.000386 
0.004551 0.001758 -0.000196 
-0.000386 -0.000196 -0.005386 

-0.004041 0.005366 0.004742 
0.005366 0.019524 0.009683 
0.004742 0.009683 -0.000019 

-0.002553 0.001704 0.004630 
0.001704 0.013322 0.004009 
0.004630 0.004009 -0.007884 

0.000055 0.003277 0.004364 
0.003277 0.015642 0.009340 
0.004364 0.009340 -0.002261 

0.002025 0.004532 0.004797 
0.004532 0.009548 0.003329 
0.004797 0.003329 -0.006638 

0.001646 0.005850 0.008896 
0.005850 0.006249 0.005653 
0.008896 0.005653 -0.005352 

-0.003411 0.004965 -0.004660 
0.004965 0.015653 0.007549 
-0.004660 0.007549 -0.003009 

-0.000547 0.005671 0.012907 
0.005671 0.017646 0.006325 
0.012907 0.006325 -0.003275 

0.001852 0.005384 0.007282 
0.005384 0.005838 0.005032 
0.007282 0.005032 -0.004706 

-0.000004 0.006195 0.001406 
0.006195 0.013668 0.008388 
0.001406 0.008388 -0.000040 

0.000294 0.004041 0.004475 
0.004041 0.011668 0.003270 
0.004475 0.003270 -0.004135 

0.002006 0.004944 0.007785 
0.004944 0.006328 0.005204 
0.007785 0.005204 -0.003150 

-0.000741 0.004055 -0.001940 
0.004055 0.007261 0.003224 
-0.001940 0.003224 -0.006137 

-0.001682 0.004230 0.004708 
0.004230 0.018859 0.008652 
0.004708 0.008652 -0.000855 

-0.000739 0.002281 0.005590 
0.002281 0.011506 0.006709 
0.005590 0.006709 -0.004508 

-0.001168 0.003787 -0.000872 
0.003787 0.014571 0.007338 
-0.000872 0.007338 -0.002789 

0.000410 0.005564 0.012127 
0.005564 0.010392 0.004329 
0.012127 0.004329 -0.004788 

-0.000367 0.005825 0.004694 
0.005825 0.006689 0.005226 
0.004694 0.005226 -0.004331 

-0.001868 0.005698 0.002911 
0.005698 0.018486 0.008304 
0.002911 0.008304 0.001200 

-0.000405 0.002526 0.010282 
0.002526 0.005370 0.002741 
0.010282 0.002741 -0.003557 

-0.000884 0.003025 -0.004333 
0.003025 0.002694 0.000148 
-0.004333 0.000148 -0.003577 

0.001970 0.003245 0.012923 
0.003245 0.003168 0.000073 
0.012923 0.000073 -0.001559 

0.000818 0.000903 -0.002474 
0.000903 -0.001672 0.002387 
-0.002474 0.002387 0.001981 

0.000818 0.000644 0.001287 
0.000644 -0.000101 -0.002496 
0.001287 -0.002496 -0.000244 

0.003804 0.004771 -0.000610 
0.004771 -0.002174 -0.001309 
-0.000610 -0.001309 -0.004397 

-0.000742 0.014195 0.008598 
0.014195 0.002080 0.009332 
0.008598 0.009332 0.002332 

-0.003208 0.008485 -0.004419 
0.008485 0.036448 -0.008073 
-0.004419 -0.008073 -0.017331 

0.000126 0.015153 -0.007390 
0.015153 0.034527 0.011119 
-0.007390 0.011119 -0.005271 

0.000830 0.015478 -0.008138 
0.015478 0.027271 -0.006028 
-0.008138 -0.006028 -0.015855 

0.003903 0.021221 -0.008603 
0.021221 0.019814 0.006259 
-0.008603 0.006259 -0.006091 

0.000872 0.024870 -0.016240 
0.024870 0.026679 0.001888 
-0.016240 0.001888 -0.006722 

-0.000934 0.021008 0.014845 
0.021008 0.022190 -0.003601 
0.014845 -0.003601 -0.014178 

0.000924 0.028180 -0.025912 
0.028180 0.018819 -0.000447 
-0.025912 -0.000447 -0.013821 

-0.000246 0.036347 -0.014657 
0.036347 0.023198 0.001340 
-0.014657 0.001340 -0.007512 

-0.004270 0.021568 0.000882 
0.021568 0.029965 -0.009747 
0.000882 -0.009747 -0.015413 

0.000059 0.021112 -0.006952 
0.021112 0.018396 0.003084 
-0.006952 0.003084 -0.007583 

0.001332 0.021746 -0.013827 
0.021746 0.025438 -0.000407 
-0.013827 -0.000407 -0.007079 

-0.002152 0.015813 0.008654 
0.015813 0.030903 0.007302 
0.008654 0.007302 -0.003003 

-0.001019 0.011400 -0.007246 
0.011400 0.021674 -0.008370 
-0.007246 -0.008370 -0.018147 

0.001784 0.016383 -0.009649 
0.016383 0.029631 0.001358 
-0.009649 0.001358 -0.010574 

0.002287 0.012733 0.004247 
0.012733 0.017569 -0.003447 
0.004247 -0.003447 -0.014154 

0.003848 0.025538 -0.025000 
0.025538 0.008097 0.002714 
-0.025000 0.002714 -0.008906 

-0.003554 0.032395 -0.008643 
0.032395 0.023045 0.001404 
-0.008643 0.001404 -0.006688 

-0.004529 0.021314 -0.004724 
0.021314 0.027560 -0.011265 
-0.004724 -0.011265 -0.018108 

0.000505 0.023141 -0.021718 
0.023141 0.019799 0.003964 
-0.021718 0.003964 -0.003723 

-0.001921 0.017615 0.009186 
0.017615 0.015186 0.006521 
0.009186 0.006521 0.001716 

-0.002883 0.014456 -0.030105 
0.014456 0.017486 0.003583 
-0.030105 0.003583 0.000522 

0.000302 0.008044 0.005535 
0.008044 0.004404 -0.007139 
0.005535 -0.007139 -0.003581 

0.000302 0.000486 -0.001848 
0.000486 0.000745 0.002500 
-0.001848 0.002500 0.003496 

0.006798 0.006526 0.002610 
0.006526 0.000339 0.012891 
0.002610 0.012891 -0.003295 

0.011787 0.027050 0.004223 
0.027050 0.003015 -0.024189 
0.004223 -0.024189 -0.003381 

0.009763 -0.005464 0.031263 
-0.005464 0.014979 0.130763 
0.031263 0.130763 -0.023285 

0.008724 -0.002210 0.053597 
-0.002210 0.009708 0.026743 
0.053597 0.026743 -0.026704 

0.007786 -0.001454 0.054647 
-0.001454 0.009552 0.102191 
0.054647 0.102191 -0.009196 

-0.002260 0.000227 0.056968 
0.000227 0.026239 0.035279 
0.056968 0.035279 -0.015765 

0.001556 0.004467 0.103750 
0.004467 0.026489 0.032729 
0.103750 0.032729 -0.003815 

0.028276 0.011880 -0.022633 
0.011880 -0.004839 0.090175 
-0.022633 0.090175 -0.008930 

-0.000333 0.000693 0.131864 
0.000693 -0.006015 0.098317 
0.131864 0.098317 -0.023879 

-0.023696 0.009967 0.107367 
0.009967 0.030290 0.023330 
0.107367 0.023330 0.008084 

-0.001799 0.005669 0.027854 
0.005669 0.009687 0.103349 
0.027854 0.103349 -0.002039 

-0.006989 0.011662 0.049936 
0.011662 0.005564 0.049061 
0.049936 0.049061 -0.012917 

-0.020092 0.006258 0.077582 
0.006258 0.030857 0.036612 
0.077582 0.036612 -0.005891 

0.006210 0.008736 -0.001655 
0.008736 0.019576 0.015655 
-0.001655 0.015655 -0.018361 

0.003090 0.010547 0.047134 
0.010547 -0.007615 0.124716 
0.047134 0.124716 -0.008013 

0.001238 -0.000383 0.059501 
-0.000383 0.008695 0.053951 
0.059501 0.053951 -0.011558 

0.027323 -0.005009 0.004346 
-0.005009 -0.004892 0.092377 
0.004346 0.092377 -0.013297 

0.004979 -0.006168 0.128541 
-0.006168 -0.005809 0.053105 
0.128541 0.053105 -0.012808 

-0.003735 0.001246 0.087630 
0.001246 0.004592 0.026630 
0.087630 0.026630 -0.001114 

-0.007633 -0.002629 0.044879 
-0.002629 0.003737 0.131538 
0.044879 0.131538 -0.006017 

-0.013785 0.000487 0.103699 
0.000487 0.030532 0.007883 
0.103699 0.007883 -0.002536 

-0.004402 0.001609 -0.009458 
0.001609 0.032319 -0.005795 
-0.009458 -0.005795 -0.015435 

-0.022286 -0.013665 0.140162 
-0.013665 0.025911 0.006817 
0.140162 0.006817 -0.015355 

-0.014814 -0.003535 -0.008631 
-0.003535 0.006010 0.003433 
-0.008631 0.003433 0.023481 

-0.014814 0.000427 0.009942 
0.000427 0.001439 -0.002340 
0.009942 -0.002340 -0.006429 

0.001879 0.007523 0.001379 
0.007523 0.000305 0.005035 
0.001379 0.005035 -0.004890 

0.006996 0.038443 0.005278 
0.038443 0.003235 -0.006790 
0.005278 -0.006790 -0.000812 

0.021240 0.009246 -0.009056 
0.009246 -0.003567 0.083521 
-0.009056 0.083521 -0.000605 

0.018387 0.008709 -0.001343 
0.008709 -0.025530 0.125059 
-0.001343 0.125059 -0.004666 

-0.007707 0.005168 0.072135 
0.005168 0.000338 0.030264 
0.072135 0.030264 -0.000565 

0.004115 0.016572 0.008307 
0.016572 0.022213 0.042804 
0.008307 0.042804 0.002780 

0.023672 0.000772 -0.021933 
0.000772 0.011571 0.083305 
-0.021933 0.083305 -0.031805 

0.013016 -0.008436 0.147403 
-0.008436 -0.002233 0.006006 
0.147403 0.006006 -0.003012 

-0.001764 0.000817 0.040371 
0.000817 0.004877 0.001886 
0.040371 0.001886 0.016689 

-0.007846 -0.010031 0.095917 
-0.010031 0.018733 0.060804 
0.095917 0.060804 -0.014802 

-0.005043 -0.010324 0.035936 
-0.010324 0.012011 0.041199 
0.035936 0.041199 0.007861 

-0.024535 0.000878 0.120309 
0.000878 0.019640 0.010795 
0.120309 0.010795 0.005233 

-0.010002 -0.003597 0.019814 
-0.003597 0.005290 0.094377 
0.019814 0.094377 0.019721 

0.009834 0.005794 -0.013258 
0.005794 -0.014822 0.145226 
-0.013258 0.145226 -0.004852 

-0.004606 0.020126 0.073710 
0.020126 -0.001076 -0.054144 
0.073710 -0.054144 0.005137 

-0.003850 -0.002845 0.001639 
-0.002845 -0.019320 0.128779 
0.001639 0.128779 0.017347 

0.000013 0.007773 0.027179 
0.007773 0.012310 0.005784 
0.027179 0.005784 0.010069 

0.017655 0.016387 0.000327 
0.016387 0.011617 -0.017503 
0.000327 -0.017503 0.005416 

0.022773 0.005102 0.012194 
0.005102 -0.001839 0.082965 
0.012194 0.082965 -0.006838 

-0.011308 -0.006894 0.115669 
-0.006894 0.021416 -0.022848 
0.115669 -0.022848 -0.002917 

-0.021691 -0.012036 0.063932 
-0.012036 0.018564 0.078880 
0.063932 0.078880 0.006244 

-0.015732 0.009236 0.019842 
0.009236 0.013132 0.062136 
0.019842 0.062136 -0.001181 

-0.018027 -0.005218 -0.004165 
-0.005218 0.017572 0.088175 
-0.004165 0.088175 -0.003640 

-0.006891 0.000483 0.007287 
0.000483 0.005738 -0.018863 
0.007287 -0.018863 0.002102 

-0.006891 -0.004574 0.000837 
-0.004574 0.002150 0.008641 
0.000837 0.008641 0.005275 

0.008463 0.009721 0.004768 
0.009721 -0.000481 0.011831 
0.004768 0.011831 -0.002222 

0.026076 0.034078 -0.000682 
0.034078 -0.002920 -0.020220 
-0.000682 -0.020220 -0.006653 

0.020019 -0.013318 0.052344 
-0.013318 -0.007624 0.131587 
0.052344 0.131587 -0.018640 

0.002613 0.004726 0.123519 
0.004726 -0.000895 -0.035544 
0.123519 -0.035544 0.024537 

0.012685 0.013554 0.014992 
0.013554 -0.016585 0.098578 
0.014992 0.098578 0.008074 

0.001988 0.002792 0.060202 
0.002792 -0.017255 0.097576 
0.060202 0.097576 -0.030583 

-0.017607 -0.019434 0.141942 
-0.019434 -0.006737 0.096800 
0.141942 0.096800 0.008139 

0.001157 0.006217 -0.027692 
0.006217 0.001128 0.057326 
-0.027692 0.057326 0.014560 

0.013468 0.026627 0.049767 
0.026627 0.019212 0.021900 
0.049767 0.021900 -0.021260 

-0.000466 -0.015176 0.047647 
-0.015176 -0.002516 0.120376 
0.047647 0.120376 -0.017238 

-0.027285 -0.016951 0.126693 
-0.016951 0.024127 0.041472 
0.126693 0.041472 -0.002832 

-0.003650 0.006439 -0.008493 
0.006439 0.015118 0.031916 
-0.008493 0.031916 0.005073 

0.029826 -0.007467 0.011881 
-0.007467 -0.003845 0.045335 
0.011881 0.045335 -0.024203 

-0.005001 -0.015489 0.136194 
-0.015489 0.002955 -0.032705 
0.136194 -0.032705 -0.001032 

-0.006488 -0.008681 0.089442 
-0.008681 0.010016 0.098968 
0.089442 0.098968 0.015591 

0.008882 -0.000513 0.021097 
-0.000513 -0.016165 -0.002162 
0.021097 -0.002162 0.010346 

-0.019069 -0.006964 0.123052 
-0.006964 0.010520 0.032171 
0.123052 0.032171 -0.018904 

0.004189 0.014162 -0.008335 
0.014162 0.020813 0.043732 
-0.008335 0.043732 0.003626 

0.005388 0.020246 0.055173 
0.020246 0.026289 -0.041586 
0.055173 -0.041586 -0.024013 

-0.006491 0.008988 0.068573 
0.008988 0.002307 0.111638 
0.068573 0.111638 -0.009173 

0.018896 0.007622 -0.038650 
0.007622 -0.000018 0.061124 
-0.038650 0.061124 -0.008863 

-0.011927 -0.008232 0.112134 
-0.008232 0.004924 0.021561 
0.112134 0.021561 -0.028688 

-0.037955 -0.041846 0.138625 
-0.041846 0.021199 0.058327 
0.138625 0.058327 0.018526 

-0.017006 -0.011584 -0.006199 
-0.011584 0.003375 -0.001266 
-0.006199 -0.001266 0.018921 

-0.017006 -0.004444 0.009202 
-0.004444 0.000041 0.001431 
0.009202 0.001431 -0.002001 

0.011652 0.007201 0.004690 
0.007201 -0.001055 0.005464 
0.004690 0.005464 -0.002873 

0.023919 0.029910 -0.000828 
0.029910 -0.006148 -0.007944 
-0.000828 -0.007944 -0.009255 

0.008130 -0.004051 0.048458 
-0.004051 -0.005717 0.083588 
0.048458 0.083588 0.004209 

0.015568 0.017461 -0.015125 
0.017461 0.024255 0.006614 
-0.015125 0.006614 -0.019324 

0.021261 0.021184 0.062092 
0.021184 -0.015356 0.022573 
0.062092 0.022573 -0.004736 

-0.009827 -0.002850 0.110672 
-0.002850 -0.022690 0.093012 
0.110672 0.093012 0.017558 

-0.010083 -0.023092 0.066183 
-0.023092 -0.024652 0.113167 
0.066183 0.113167 0.031567 

0.004865 0.006010 0.020204 
0.006010 0.003644 -0.016196 
0.020204 -0.016196 -0.003683 

-0.012632 0.008076 0.109841 
0.008076 0.012585 0.055332 
0.109841 0.055332 -0.017737 

-0.010401 0.008688 0.027743 
0.008688 -0.011109 0.089176 
0.027743 0.089176 0.030213 

-0.003172 -0.004274 0.005222 
-0.004274 0.007994 0.097546 
0.005222 0.097546 -0.015478 

0.004135 0.009215 0.052290 
0.009215 -0.010884 0.093226 
0.052290 0.093226 0.004853 

0.000972 0.007939 0.022490 
0.007939 -0.011217 0.115390 
0.022490 0.115390 0.008616 

-0.002894 0.011117 0.002169 
0.011117 0.018150 0.068581 
0.002169 0.068581 -0.014901 

0.004033 0.001572 0.031122 
0.001572 0.021697 -0.004931 
0.031122 -0.004931 -0.001798 

0.019799 0.025231 -0.003421 
0.025231 0.009149 -0.007680 
-0.003421 -0.007680 -0.009205 

-0.000367 -0.015916 0.089646 
-0.015916 -0.010169 0.138445 
0.089646 0.138445 -0.009329 

-0.011248 -0.007147 0.094481 
-0.007147 0.010760 0.026017 
0.094481 0.026017 0.013464 

0.015585 0.005195 0.008654 
0.005195 0.012245 0.117510 
0.008654 0.117510 -0.017603 

0.008459 -0.004015 0.098698 
-0.004015 -0.016338 0.094805 
0.098698 0.094805 0.004088 

-0.024641 -0.020206 0.129916 
-0.020206 -0.014681 0.100320 
0.129916 0.100320 0.006709 

-0.030169 0.000611 0.045316 
0.000611 -0.007755 0.081583 
0.045316 0.081583 0.026026 

-0.017009 -0.025017 -0.040902 
-0.025017 -0.004794 0.119546 
-0.040902 0.119546 -0.004194 

-0.002727 -0.000828 0.009970 
-0.000828 -0.000464 -0.021671 
0.009970 -0.021671 -0.001626 

-0.002727 -0.008717 0.000906 
-0.008717 0.001371 0.010793 
0.000906 0.010793 0.008431 

0.013813 0.005988 0.007206 
0.005988 0.001178 0.008992 
0.007206 0.008992 -0.000730 

0.037198 0.023983 -0.005091 
0.023983 -0.000724 -0.015137 
-0.005091 -0.015137 -0.012174 

0.025595 -0.013296 0.095574 
-0.013296 -0.016726 0.078778 
0.095574 0.078778 -0.017686 

0.003293 -0.029746 0.105266 
-0.029746 -0.005210 0.084765 
0.105266 0.084765 -0.018346 

-0.007894 0.010857 0.097171 
0.010857 -0.000724 0.012995 
0.097171 0.012995 0.007512 

-0.015023 0.007512 0.048658 
0.007512 0.010288 0.008156 
0.048658 0.008156 0.011792 

-0.005874 0.004241 0.053227 
0.004241 0.006788 0.021585 
0.053227 0.021585 0.030388 

0.011696 0.012543 -0.014984 
0.012543 0.015578 0.026665 
-0.014984 0.026665 -0.018419 

-0.002271 -0.017178 0.117700 
-0.017178 -0.015956 0.128459 
0.117700 0.128459 -0.014838 

-0.007058 0.004536 0.072577 
0.004536 -0.006097 0.015904 
0.072577 0.015904 0.026016 

0.011092 -0.016658 0.042083 
-0.016658 -0.016840 0.130736 
0.042083 0.130736 -0.002223 

0.011418 0.000243 0.057744 
0.000243 0.003399 -0.016944 
0.057744 -0.016944 -0.009840 

-0.005745 0.001059 0.126098 
0.001059 0.009196 0.018579 
0.126098 0.018579 0.012721 

-0.000252 -0.006446 0.052721 
-0.006446 0.004536 0.034695 
0.052721 0.034695 0.000299 

-0.007331 -0.023924 0.081090 
-0.023924 0.006831 0.127398 
0.081090 0.127398 -0.028126 

-0.022285 0.001910 0.120776 
0.001910 0.024966 -0.000997 
0.120776 -0.000997 0.003569 

-0.001559 0.003652 0.001042 
0.003652 0.014724 0.010755 
0.001042 0.010755 0.026154 

0.015287 0.002951 0.011682 
0.002951 0.002807 0.034621 
0.011682 0.034621 -0.020506 

0.008221 -0.011959 0.069281 
-0.011959 0.002114 0.060165 
0.069281 0.060165 -0.006116 

-0.013507 0.002181 0.079549 
0.002181 0.020687 -0.025922 
0.079549 -0.025922 0.001848 

-0.006170 0.000884 0.033184 
0.000884 -0.001284 0.075358 
0.033184 0.075358 0.031049 

0.001664 0.003147 0.009448 
0.003147 -0.007354 -0.006733 
0.009448 -0.006733 -0.001921 

-0.022702 -0.043115 0.139415 
-0.043115 -0.015490 0.129154 
0.139415 0.129154 0.016460 

-0.018503 -0.011565 -0.004420 
-0.011565 0.001904 -0.020344 
-0.004420 -0.020344 0.019723 

-0.018503 -0.006679 0.008696 
-0.006679 0.002132 0.010962 
0.008696 0.010962 -0.000175 

0.001020 0.003974 -0.000014 
0.003974 0.001464 0.002341 
-0.000014 0.002341 -0.008102 

0.014303 0.028807 0.011492 
0.028807 0.001522 -0.001455 
0.011492 -0.001455 0.002233 

0.036719 0.021910 -0.038094 
0.021910 -0.011594 0.051976 
-0.038094 0.051976 0.001638 

0.032502 -0.015910 0.042306 
-0.015910 -0.028553 0.113871 
0.042306 0.113871 -0.007831 

-0.001043 0.007668 0.089644 
0.007668 0.002974 -0.014777 
0.089644 -0.014777 -0.003726 

-0.016536 -0.008577 0.081670 
-0.008577 0.022893 0.074388 
0.081670 0.074388 -0.012774 

-0.023910 -0.002132 0.085039 
-0.002132 0.026852 -0.002827 
0.085039 -0.002827 -0.012764 

-0.012414 0.007188 0.051029 
0.007188 0.022367 0.056818 
0.051029 0.056818 0.005778 

0.007498 0.008910 0.000343 
0.008910 -0.005667 0.057615 
0.000343 0.057615 0.025938 

0.017802 0.015608 0.011381 
0.015608 -0.004595 0.017271 
0.011381 0.017271 -0.019617 

0.013636 -0.002433 0.050238 
-0.002433 -0.034720 0.115182 
0.050238 0.115182 0.010776 

-0.006817 0.003858 0.057927 
0.003858 0.007602 0.083986 
0.057927 0.083986 -0.007051 

-0.008008 0.004251 0.028307 
0.004251 0.023504 0.047571 
0.028307 0.047571 -0.017116 

0.002622 -0.002622 0.069419 
-0.002622 -0.020026 0.119947 
0.069419 0.119947 0.005277 

-0.007576 -0.011186 0.031323 
-0.011186 -0.006876 0.071000 
0.031323 0.071000 0.011985 

-0.018837 0.003534 0.051335 
0.003534 0.007049 0.051021 
0.051335 0.051021 -0.007811 

-0.002246 0.006849 0.016998 
0.006849 0.009416 0.068600 
0.016998 0.068600 -0.011564 

0.017385 0.013094 0.040031 
0.013094 -0.004113 0.087810 
0.040031 0.087810 0.005433 

0.017318 0.013228 0.000137 
0.013228 -0.017947 0.089397 
0.000137 0.089397 -0.010646 

-0.010953 0.006257 0.064255 
0.006257 -0.005263 0.106754 
0.064255 0.106754 -0.032721 

-0.020842 0.013551 0.061066 
0.013551 0.025310 0.004252 
0.061066 0.004252 0.006449 

-0.009143 0.020339 -0.005105 
0.020339 0.008164 0.034841 
-0.005105 0.034841 -0.006169 

-0.011175 -0.017758 0.021865 
-0.017758 0.003522 0.039019 
0.021865 0.039019 0.004913 

-0.008731 -0.008856 0.006937 
-0.008856 -0.002575 0.002560 
0.006937 0.002560 0.006233 

-0.008731 -0.008112 0.002801 
-0.008112 -0.001180 0.001106 
0.002801 0.001106 0.006313 

0.016001 0.007061 0.010510 
0.007061 -0.000781 0.003116 
0.010510 0.003116 0.001784 

0.024654 0.016061 -0.015480 
0.016061 -0.002328 -0.001198 
-0.015480 -0.001198 -0.020192 

0.012133 0.005792 0.138224 
0.005792 -0.003188 0.028724 
0.138224 0.028724 0.001290 

0.021134 0.001794 -0.018237 
0.001794 0.000457 0.017773 
-0.018237 0.017773 0.016130 

-0.005479 0.008025 0.120558 
0.008025 0.011230 -0.002119 
0.120558 -0.002119 -0.030342 

-0.010904 -0.008217 0.083599 
-0.008217 0.005937 0.108635 
0.083599 0.108635 0.019160 

0.000411 0.006863 -0.007017 
0.006863 -0.015978 0.105764 
-0.007017 0.105764 -0.012292 

-0.015027 -0.003624 0.102879 
-0.003624 0.006374 0.090088 
0.102879 0.090088 -0.012079 

0.007835 0.009878 0.012382 
0.009878 0.025400 -0.019263 
0.012382 -0.019263 -0.000185 

0.017986 -0.007114 0.078273 
-0.007114 -0.016777 0.113711 
0.078273 0.113711 -0.013933 

0.009403 0.001147 0.092517 
0.001147 -0.011148 0.001684 
0.092517 0.001684 0.019282 

-0.015439 -0.016348 0.074198 
-0.016348 0.014313 0.039285 
0.074198 0.039285 -0.010552 

-0.015964 -0.033168 0.148873 
-0.033168 0.005873 0.124344 
0.148873 0.124344 0.010241 

0.007485 0.009244 -0.034057 
0.009244 -0.020381 -0.007324 
-0.034057 -0.007324 0.028716 

-0.001672 -0.003488 0.090320 
-0.003488 -0.004201 0.069579 
0.090320 0.069579 -0.017830 

-0.010570 0.009897 0.046197 
0.009897 -0.022815 0.072135 
0.046197 0.072135 0.018526 

-0.000265 0.005120 0.032230 
0.005120 0.000227 0.092072 
0.032230 0.092072 0.009199 

0.030307 0.003121 0.014299 
0.003121 0.008241 0.002602 
0.014299 0.002602 -0.012318 

0.024738 -0.000082 0.110510 
-0.000082 -0.022281 0.062123 
0.110510 0.062123 -0.002870 

-0.007121 -0.014856 0.124797 
-0.014856 -0.029542 0.104151 
0.124797 0.104151 0.023292 

-0.024397 -0.026378 0.096363 
-0.026378 -0.006371 0.106507 
0.096363 0.106507 -0.014717 

-0.029148 0.004819 0.090130 
0.004819 -0.000013 0.062806 
0.090130 0.062806 0.019834 

-0.027779 -0.024349 0.041523 
-0.024349 0.011767 0.102547 
0.041523 0.102547 0.006599 

-0.007243 -0.004627 0.000597 
-0.004627 0.000544 -0.017459 
0.000597 -0.017459 0.007522 

-0.007243 -0.005907 0.005469 
-0.005907 -0.003161 0.009963 
0.005469 0.009963 0.004147 

0.012491 0.003076 0.003786 
0.003076 -0.002262 0.003499 
0.003786 0.003499 -0.007073 

0.032106 0.017574 0.008840 
0.017574 -0.001109 -0.003293 
0.008840 -0.003293 -0.006219 

0.006705 0.002372 0.030284 
0.002372 0.008095 0.042376 
0.030284 0.042376 -0.020156 

-0.013322 0.001642 0.118829 
0.001642 0.016788 0.022719 
0.118829 0.022719 0.001449 

0.006050 0.028100 -0.037351 
0.028100 0.013230 0.058470 
-0.037351 0.058470 0.010510 

0.020441 0.000812 0.054457 
0.000812 -0.010289 0.080362 
0.054457 0.080362 -0.018300 

0.008669 0.010288 0.053055 
0.010288 -0.024277 0.029224 
0.053055 0.029224 0.009526 

-0.023188 -0.013184 0.135379 
-0.013184 -0.014324 0.121730 
0.135379 0.121730 0.016283 

-0.008010 -0.008726 -0.023657 
-0.008726 0.001707 0.096405 
-0.023657 0.096405 -0.010934 

-0.001673 0.007632 0.083772 
0.007632 -0.007737 0.024979 
0.083772 0.024979 0.011258 

-0.015984 0.028951 -0.004608 
0.028951 0.003073 0.006553 
-0.004608 0.006553 -0.000518 

0.000944 0.014130 0.029040 
0.014130 0.009946 0.100949 
0.029040 0.100949 -0.004670 

0.017972 -0.019026 -0.054672 
-0.019026 -0.006189 0.100897 
-0.054672 0.100897 -0.011237 

0.003237 0.011846 0.142469 
0.011846 -0.008257 -0.017916 
0.142469 -0.017916 -0.007815 

0.013122 -0.013767 0.008788 
-0.013767 -0.020131 0.117521 
0.008788 0.117521 0.008683 

-0.002592 0.015017 0.080172 
0.015017 -0.019723 -0.008025 
0.080172 -0.008025 -0.000445 

-0.014467 -0.003286 0.105920 
-0.003286 -0.009695 0.064516 
0.105920 0.064516 0.017620 

0.010037 -0.005181 -0.030313 
-0.005181 0.002305 0.105264 
-0.030313 0.105264 -0.011993 

-0.001339 0.003565 0.111471 
0.003565 0.008567 0.010503 
0.111471 0.010503 -0.008071 

0.006798 0.005198 0.032104 
0.005198 -0.001854 -0.021875 
0.032104 -0.021875 0.023403 

0.008362 -0.022206 0.045956 
-0.022206 -0.027228 0.142241 
0.045956 0.142241 0.011016 

-0.029841 -0.002681 0.093292 
-0.002681 0.016793 -0.039366 
0.093292 -0.039366 -0.001948 

-0.030235 -0.038787 0.060034 
-0.038787 -0.005442 0.104008 
0.060034 0.104008 0.016472 

-0.009803 -0.007395 0.000744 
-0.007395 -0.004510 -0.012353 
0.000744 -0.012353 0.009343 

-0.009803 -0.005778 0.005764 
-0.005778 -0.000522 0.005921 
0.005764 0.005921 0.004284 

0.019292 0.004100 0.011207 
0.004100 -0.001594 0.003314 
0.011207 0.003314 -0.000033 

0.025184 0.013654 -0.011368 
0.013654 0.002151 -0.003792 
-0.011368 -0.003792 -0.020907 

0.000685 -0.005442 0.141736 
-0.005442 0.019385 0.030423 
0.141736 0.030423 -0.010274 

0.008745 -0.007001 -0.007044 
-0.007001 0.010447 0.067264 
-0.007044 0.067264 0.003257 

0.012109 0.001405 0.107728 
0.001405 0.007623 -0.019964 
0.107728 -0.019964 -0.027527 

-0.003690 -0.029814 0.088501 
-0.029814 -0.008174 0.142210 
0.088501 0.142210 0.009408 

-0.005718 -0.003305 0.105854 
-0.003305 0.012338 -0.006506 
0.105854 -0.006506 0.015184 

0.011769 -0.018995 0.020686 
-0.018995 -0.006976 0.050989 
0.020686 0.050989 0.006298 

-0.004963 -0.036203 0.145938 
-0.036203 -0.033690 0.120338 
0.145938 0.120338 0.011713 

-0.015049 0.001358 0.032134 
0.001358 -0.001163 0.006779 
0.032134 0.006779 0.006650 

-0.002121 0.028398 0.085108 
0.028398 -0.003445 0.054374 
0.085108 0.054374 0.009838 

0.002470 -0.000629 0.015957 
-0.000629 -0.021837 0.106471 
0.015957 0.106471 -0.003414 

-0.013608 -0.018093 0.115857 
-0.018093 -0.020049 0.110724 
0.115857 0.110724 0.001236 

0.008021 0.032788 -0.035498 
0.032788 0.000954 -0.016475 
-0.035498 -0.016475 0.019537 

0.017056 0.004479 0.006301 
0.004479 -0.016177 0.081851 
0.006301 0.081851 -0.010678 

-0.006638 0.022771 0.132387 
0.022771 0.013402 -0.024182 
0.132387 -0.024182 0.007732 

0.010075 0.007815 -0.033753 
0.007815 -0.017402 0.111018 
-0.033753 0.111018 0.017329 

-0.009597 -0.007911 0.114151 
-0.007911 -0.016838 0.052703 
0.114151 0.052703 -0.008024 

-0.025032 0.011898 0.024437 
0.011898 0.017017 0.045658 
0.024437 0.045658 0.013267 

0.005765 0.026134 -0.002196 
0.026134 0.020583 0.048329 
-0.002196 0.048329 -0.004612 

0.012355 0.018192 -0.008431 
0.018192 0.015721 -0.029560 
-0.008431 -0.029560 -0.010109 

-0.021407 -0.007563 0.120624 
-0.007563 0.008065 0.088815 
0.120624 0.088815 -0.022556 

-0.016869 -0.021615 -0.001068 
-0.021615 -0.027572 0.123787 
-0.001068 0.123787 0.037888 

-0.006569 0.000910 0.008634 
0.000910 -0.003570 -0.025464 
0.008634 -0.025464 -0.002294 

-0.006569 -0.006049 0.001196 
-0.006049 0.003367 0.011848 
0.001196 0.011848 0.010793 

0.008153 0.003988 0.001806 
0.003988 0.000839 0.006744 
0.001806 0.006744 -0.008567 

0.010985 0.029014 0.011530 
0.029014 0.002951 -0.013057 
0.011530 -0.013057 -0.003417 

0.005258 0.009437 0.008928 
0.009437 0.006632 0.093607 
0.008928 0.093607 -0.014904 

0.014668 0.002140 0.025982 
0.002140 -0.002983 0.028828 
0.025982 0.028828 -0.012090 

0.000775 -0.009762 0.048966 
-0.009762 -0.012853 0.134406 
0.048966 0.134406 -0.011156 

-0.017696 -0.015613 0.057125 
-0.015613 -0.002680 0.017633 
0.057125 0.017633 0.013274 

-0.010619 0.011633 -0.001379 
0.011633 0.026301 0.008633 
-0.001379 0.008633 -0.002721 

0.028868 0.003633 -0.017505 
0.003633 -0.002147 0.060003 
-0.017505 0.060003 -0.016996 

0.020235 -0.010195 0.025589 
-0.010195 -0.012227 0.002343 
0.025589 0.002343 -0.002047 

-0.013044 -0.014754 0.119941 
-0.014754 -0.001479 0.051003 
0.119941 0.051003 0.003304 

0.006339 0.011384 0.021804 
0.011384 0.006218 -0.022653 
0.021804 -0.022653 0.008677 

0.021311 -0.009484 0.081069 
-0.009484 -0.020030 0.103415 
0.081069 0.103415 0.008802 

0.004637 -0.037911 0.073508 
-0.037911 -0.019583 0.093191 
0.073508 0.093191 0.013405 

-0.004871 -0.017312 0.143168 
-0.017312 0.006704 -0.006226 
0.143168 -0.006226 -0.006414 

-0.009613 -0.003478 0.089274 
-0.003478 -0.000223 0.022636 
0.089274 0.022636 0.018064 

-0.005959 0.002836 0.043401 
0.002836 0.029258 0.005252 
0.043401 0.005252 -0.021923 

0.012690 -0.005290 0.098041 
-0.005290 0.009762 -0.013914 
0.098041 -0.013914 0.001462 

0.009582 -0.016152 0.082017 
-0.016152 -0.018572 0.087001 
0.082017 0.087001 0.008130 

-0.008569 -0.025281 0.115697 
-0.025281 -0.006753 0.036847 
0.115697 0.036847 -0.019378 

-0.025736 -0.017716 0.142983 
-0.017716 0.012824 0.056211 
0.142983 0.056211 0.004899 

-0.007958 0.007102 0.049833 
0.007102 0.019218 0.072578 
0.049833 0.072578 0.001130 

0.007968 -0.009635 0.000255 
-0.009635 -0.016222 0.111883 
0.000255 0.111883 -0.007074 

-0.024293 -0.016039 0.122695 
-0.016039 -0.000328 -0.020946 
0.122695 -0.020946 0.016304 

-0.020486 -0.004787 0.001185 
-0.004787 0.005077 0.008076 
0.001185 0.008076 0.019403 

-0.020486 -0.003392 0.008147 
-0.003392 0.001377 -0.001317 
0.008147 -0.001317 0.003642 

0.014468 0.007513 0.010407 
0.007513 0.001652 0.007584 
0.010407 0.007584 0.000355 

0.021997 0.029920 -0.013759 
0.029920 -0.001482 -0.014462 
-0.013759 -0.014462 -0.019457 

-0.007759 0.001022 0.125223 
0.001022 -0.018443 0.101534 
0.125223 0.101534 0.003787 

-0.007052 0.001234 -0.008279 
0.001234 -0.004877 0.095723 
-0.008279 0.095723 0.019333 

0.003867 0.006577 0.057130 
0.006577 -0.001006 0.006952 
0.057130 0.006952 0.017099 

0.009601 0.013581 -0.005008 
0.013581 -0.017381 0.099879 
-0.005008 0.099879 0.005046 

0.007261 0.008056 0.034280 
0.008056 -0.008826 0.088912 
0.034280 0.088912 -0.028502 

-0.006515 -0.003653 0.082861 
-0.003653 -0.013775 0.121974 
0.082861 0.121974 0.015534 

-0.003997 0.002353 0.012316 
0.002353 0.021864 0.006334 
0.012316 0.006334 -0.008971 

0.003267 0.009554 0.052817 
0.009554 -0.001399 0.018655 
0.052817 0.018655 0.005270 

0.010938 0.018809 -0.019795 
0.018809 -0.001420 0.055299 
-0.019795 0.055299 -0.014345 

-0.000989 -0.003820 0.071585 
-0.003820 0.008536 0.002533 
0.071585 0.002533 -0.015686 

0.000452 -0.012986 0.054867 
-0.012986 0.008741 -0.001660 
0.054867 -0.001660 0.018682 

0.019815 -0.000079 -0.038311 
-0.000079 0.008897 0.032975 
-0.038311 0.032975 -0.014496 

0.000144 0.010697 0.094544 
0.010697 0.009210 0.011813 
0.094544 0.011813 -0.016368 

-0.022989 -0.014500 0.088703 
-0.014500 -0.001764 0.129479 
0.088703 0.129479 0.004870 

-0.008257 -0.006296 0.016796 
-0.006296 0.003872 0.079265 
0.016796 0.079265 -0.002916 

0.001173 0.021322 0.009591 
0.021322 -0.007581 -0.019778 
0.009591 -0.019778 0.005011 

0.002979 0.015675 0.016688 
0.015675 -0.010804 0.121237 
0.016688 0.121237 0.020720 

0.011076 0.008958 -0.038235 
0.008958 -0.011165 0.063938 
-0.038235 0.063938 -0.012983 

0.017747 -0.008444 0.076366 
-0.008444 0.002326 0.079807 
0.076366 0.079807 -0.013146 

-0.006997 -0.018698 0.068060 
-0.018698 -0.015671 0.056784 
0.068060 0.056784 0.005115 

-0.037200 -0.029009 0.115209 
-0.029009 0.011673 0.034059 
0.115209 0.034059 -0.009609 

-0.017695 -0.010312 -0.001309 
-0.010312 0.001014 0.002686 
-0.001309 0.002686 0.023593 

-0.017695 -0.005386 0.011760 
-0.005386 -0.001457 0.000516 
0.011760 0.000516 0.000920 

0.013977 0.005444 0.008444 
0.005444 -0.000594 0.005062 
0.008444 0.005062 -0.001908 

0.027661 0.023471 -0.007141 
0.023471 -0.003151 -0.006376 
-0.007141 -0.006376 -0.016541 

-0.005503 0.007234 0.087109 
0.007234 -0.006910 0.056902 
0.087109 0.056902 0.008575 

-0.014324 0.005863 0.034365 
0.005863 0.010265 -0.002224 
0.034365 -0.002224 0.022897 

0.013860 0.014704 -0.022495 
0.014704 0.022000 0.040350 
-0.022495 0.040350 -0.016316 

0.028783 0.022041 0.035359 
0.022041 -0.002334 -0.015745 
0.035359 -0.015745 -0.003336 

-0.000646 -0.017393 0.095829 
-0.017393 -0.015903 0.115362 
0.095829 0.115362 0.002261 

-0.023056 -0.004755 0.090594 
-0.004755 -0.001991 -0.029283 
0.090594 -0.029283 0.023456 

-0.001659 0.000130 0.016155 
0.000130 0.002031 0.097776 
0.016155 0.097776 0.007407 

0.019756 0.025971 -0.017252 
0.025971 0.001853 0.018861 
-0.017252 0.018861 -0.017694 

-0.014682 0.014542 0.136806 
0.014542 0.001212 0.047166 
0.136806 0.047166 0.001887 

-0.010608 0.002563 0.030400 
0.002563 -0.000880 0.131501 
0.030400 0.131501 0.024293 

0.014099 0.003905 -0.027839 
0.003905 0.010224 0.073413 
-0.027839 0.073413 -0.021321 

0.001977 -0.002860 0.111668 
-0.002860 0.015150 0.045518 
0.111668 0.045518 -0.008923 

-0.004143 0.012017 0.012188 
0.012017 0.019297 -0.004410 
0.012188 -0.004410 -0.010205 

0.001478 0.005496 0.081359 
0.005496 -0.002172 0.052836 
0.081359 0.052836 0.020946 

0.007604 -0.005997 -0.009531 
-0.005997 -0.010944 0.064175 
-0.009531 0.064175 0.003420 

-0.008031 0.014568 0.129259 
0.014568 -0.004299 0.038276 
0.129259 0.038276 -0.005226 

-0.000851 0.007693 0.018212 
0.007693 0.019622 -0.034057 
0.018212 -0.034057 0.003866 

0.005282 0.005270 0.121569 
0.005270 -0.007488 0.083511 
0.121569 0.083511 0.019876 

0.005083 -0.018867 -0.011053 
-0.018867 -0.009313 0.097426 
-0.011053 0.097426 -0.012405 

-0.019287 -0.004177 0.127430 
-0.004177 -0.002238 0.012599 
0.127430 0.012599 0.001044 

-0.026111 -0.026073 0.016053 
-0.026073 -0.006640 0.133575 
0.016053 0.133575 0.032601 

-0.007842 -0.005060 0.007286 
-0.005060 -0.004214 -0.024403 
0.007286 -0.024403 0.000522 

-0.007842 -0.006150 0.001800 
-0.006150 -0.001559 0.012288 
0.001800 0.012288 0.009980 

0.018553 0.004201 0.007917 
0.004201 -0.001436 -0.000656 
0.007917 -0.000656 -0.002140 

0.028120 0.015784 -0.004958 
0.015784 -0.001435 0.004740 
-0.004958 0.004740 -0.016459 

0.003283 0.007473 0.116322 
0.007473 0.005753 0.000852 
0.116322 0.000852 -0.013727 

0.005646 -0.001629 0.010335 
-0.001629 0.010070 0.069778 
0.010335 0.069778 -0.010737 

-0.000409 -0.027487 0.130143 
-0.027487 0.001053 0.094339 
0.130143 0.094339 -0.023012 

-0.006350 -0.009794 0.072905 
-0.009794 0.010983 0.020172 
0.072905 0.020172 -0.007730 

-0.000445 -0.014706 0.084267 
-0.014706 -0.001982 0.045165 
0.084267 0.045165 0.013986 

0.017062 -0.001592 0.012554 
-0.001592 -0.011175 0.051007 
0.012554 0.051007 -0.007576 

0.014716 -0.023594 0.079446 
-0.023594 -0.014463 0.066537 
0.079446 0.066537 -0.012859 

-0.015099 -0.013243 0.140800 
-0.013243 0.016136 0.004657 
0.140800 0.004657 -0.002706 

-0.009249 0.004789 0.057512 
0.004789 0.011409 0.018005 
0.057512 0.018005 0.011960 

0.000837 0.004497 0.026943 
0.004497 0.005606 0.008216 
0.026943 0.008216 0.002860 

-0.011756 -0.007744 0.111418 
-0.007744 0.012644 0.040614 
0.111418 0.040614 -0.006843 

0.003628 -0.005593 0.022336 
-0.005593 0.020861 0.038421 
0.022336 0.038421 0.001604 

0.012312 -0.003336 0.063011 
-0.003336 -0.005622 0.102137 
0.063011 0.102137 -0.013676 

0.003639 -0.005990 0.077299 
-0.005990 0.011535 0.024055 
0.077299 0.024055 -0.009289 

0.001129 -0.006392 0.060950 
-0.006392 -0.003028 0.043608 
0.060950 0.043608 -0.003199 

-0.022553 0.024542 0.079924 
0.024542 0.003366 -0.022430 
0.079924 -0.022430 0.014346 

-0.009947 0.000017 0.014910 
0.000017 0.016494 0.154141 
0.014910 0.154141 -0.003649 

0.017506 0.015047 -0.005084 
0.015047 0.004670 -0.057610 
-0.005084 -0.057610 -0.021811 

-0.003033 -0.012266 0.105912 
-0.012266 -0.022829 0.155098 
0.105912 0.155098 0.014682 

-0.016746 0.006955 -0.000365 
0.006955 0.001341 0.009295 
-0.000365 0.009295 0.004079 

-0.018577 -0.010297 0.056805 
-0.010297 0.003411 -0.005621 
0.056805 -0.005621 0.002469 

-0.010021 0.000259 0.002392 
0.000259 -0.000773 0.005762 
0.002392 0.005762 0.011401 

-0.010021 -0.003396 0.006565 
-0.003396 -0.001177 -0.001510 
0.006565 -0.001510 0.005219 

0.011445 0.003530 0.006577 
0.003530 0.000874 0.010924 
0.006577 0.010924 -0.004088 

0.023496 0.021366 -0.000062 
0.021366 0.002252 -0.021406 
-0.000062 -0.021406 -0.010996 

0.002046 0.010238 0.060288 
0.010238 -0.000016 0.106074 
0.060288 0.106074 -0.008714 

-0.007712 0.003176 0.059235 
0.003176 -0.014502 0.067189 
0.059235 0.067189 0.008433 

-0.004733 0.003989 -0.014488 
0.003989 -0.015005 0.107768 
-0.014488 0.107768 0.018778 

0.000081 0.013622 0.005705 
0.013622 -0.002094 0.069524 
0.005705 0.069524 0.007202 

0.010598 0.008219 -0.028786 
0.008219 0.009054 0.054644 
-0.028786 0.054644 -0.009025 

0.007605 0.006266 0.060935 
0.006266 -0.003195 0.025495 
0.060935 0.025495 -0.000324 

0.000577 -0.008898 0.054172 
-0.008898 0.006675 0.055182 
0.054172 0.055182 0.014917 

0.010417 -0.009333 0.011748 
-0.009333 0.004405 0.048166 
0.011748 0.048166 -0.013374 

0.006364 -0.003867 0.072047 
-0.003867 0.005356 0.072506 
0.072047 0.072506 -0.011498 

-0.008707 -0.006405 0.088908 
-0.006405 0.002110 0.071981 
0.088908 0.071981 -0.012836 

-0.018999 0.000847 0.052617 
0.000847 -0.007574 0.132520 
0.052617 0.132520 0.020921 

0.005652 0.001777 -0.013508 
0.001777 -0.003889 0.086358 
-0.013508 0.086358 -0.008150 

0.023806 0.014877 0.020941 
0.014877 -0.001138 -0.005138 
0.020941 -0.005138 -0.007356 

0.012567 -0.021408 0.088416 
-0.021408 -0.011299 0.104407 
0.088416 0.104407 -0.020148 

-0.001886 -0.015175 0.066587 
-0.015175 -0.008322 0.063654 
0.066587 0.063654 0.000971 

-0.021345 0.012981 0.110640 
0.012981 0.026551 -0.017774 
0.110640 -0.017774 -0.007131 

-0.009420 -0.013069 0.074868 
-0.013069 -0.006118 0.091025 
0.074868 0.091025 0.027683 

0.014476 0.003655 0.005645 
0.003655 -0.003727 0.123624 
0.005645 0.123624 -0.008342 

0.009390 -0.008757 0.094961 
-0.008757 0.000535 -0.013479 
0.094961 -0.013479 -0.002367 

-0.011742 -0.008459 0.079234 
-0.008459 -0.013319 0.054622 
0.079234 0.054622 0.000227 

-0.032187 -0.022225 0.102869 
-0.022225 -0.005431 0.130520 
0.102869 0.130520 0.008938 

-0.017332 -0.002169 0.001128 
-0.002169 0.003069 -0.027044 
0.001128 -0.027044 0.017729 

-0.017332 -0.004017 0.008714 
-0.004017 0.002936 0.012766 
0.008714 0.012766 0.004123 

0.009655 0.004623 0.005166 
0.004623 -0.000970 -0.003742 
0.005166 -0.003742 -0.004624 

0.016108 0.023166 0.001103 
0.023166 0.001592 0.011442 
0.001103 0.011442 -0.008828 

0.018225 0.018610 0.049674 
0.018610 0.003979 -0.015641 
0.049674 -0.015641 -0.007014 

0.013324 0.011695 0.012879 
0.011695 -0.012256 0.085593 
0.012879 0.085593 0.008306 

-0.002281 -0.003476 0.119815 
-0.003476 0.010626 0.013097 
0.119815 0.013097 0.004507 

0.001758 -0.008525 0.038537 
-0.008525 0.022324 -0.001020 
0.038537 -0.001020 -0.002853 

-0.014400 -0.029734 0.153690 
-0.029734 0.012394 0.063081 
0.153690 0.063081 -0.011107 

-0.022062 0.007899 0.030734 
0.007899 0.011560 0.004600 
0.030734 0.004600 0.022755 

0.000191 0.016728 -0.007391 
0.016728 0.025877 0.018563 
-0.007391 0.018563 -0.004005 

0.011877 0.015385 -0.011366 
0.015385 -0.001732 0.065956 
-0.011366 0.065956 -0.008759 

0.004642 0.009478 0.070296 
0.009478 0.004694 0.007652 
0.070296 0.007652 -0.006693 

0.019557 -0.000232 -0.028484 
-0.000232 -0.004607 0.089141 
-0.028484 0.089141 -0.000007 

0.006018 -0.015811 0.121432 
-0.015811 -0.005557 -0.026695 
0.121432 -0.026695 -0.018837 

-0.014279 -0.029953 0.106495 
-0.029953 -0.022598 0.139446 
0.106495 0.139446 0.030655 

-0.000242 0.001361 0.049321 
0.001361 -0.003940 0.042524 
0.049321 0.042524 0.007065 

0.013809 -0.015656 0.006332 
-0.015656 -0.018211 0.111272 
0.006332 0.111272 0.005646 

-0.017192 -0.005602 0.120750 
-0.005602 0.006706 0.000788 
0.120750 0.000788 0.011268 

0.001768 0.005696 -0.012970 
0.005696 0.022418 0.037132 
-0.012970 0.037132 -0.005258 

0.010170 -0.003282 0.034637 
-0.003282 -0.008363 0.084399 
0.034637 0.084399 -0.013826 

-0.010421 0.001548 0.093603 
0.001548 0.005512 -0.027367 
0.093603 -0.027367 0.011305 

0.006068 0.000437 0.010851 
0.000437 -0.003436 0.108919 
0.010851 0.108919 -0.001002 

0.006486 0.014324 0.014248 
0.014324 -0.012697 0.004693 
0.014248 0.004693 -0.008590 

-0.030577 -0.020975 0.114241 
-0.020975 0.003890 0.009933 
0.114241 0.009933 0.011658 

-0.021028 -0.008151 0.003420 
-0.008151 0.003642 0.006214 
0.003420 0.006214 0.019766 

-0.021028 -0.005804 0.008488 
-0.005804 0.002013 -0.001043 
0.008488 -0.001043 0.004625 

0.012925 0.005591 0.004839 
0.005591 0.000332 0.012331 
0.004839 0.012331 -0.005133 

0.034082 0.023445 0.003921 
0.023445 -0.004211 -0.025491 
0.003921 -0.025491 -0.008142 

0.020714 0.001316 0.058660 
0.001316 -0.014310 0.137820 
0.058660 0.137820 -0.021983 

-0.011021 0.003387 0.105140 
0.003387 0.023795 -0.045240 
0.105140 -0.045240 -0.007058 

-0.027431 -0.004586 0.064092 
-0.004586 0.019803 0.088084 
0.064092 0.088084 0.002723 

-0.004780 0.017506 -0.010495 
0.017506 0.004919 0.071326 
-0.010495 0.071326 -0.001649 

0.017655 0.008805 -0.038877 
0.008805 -0.008187 0.105671 
-0.038877 0.105671 -0.016866 

0.008398 0.013803 0.068849 
0.013803 0.015481 -0.000760 
0.068849 -0.000760 -0.022595 

-0.005232 -0.022950 0.096942 
-0.022950 0.011562 0.126807 
0.096942 0.126807 -0.016033 

-0.005214 0.004785 0.081182 
0.004785 0.000931 0.013883 
0.081182 0.013883 0.014691 

-0.004983 -0.002654 0.025511 
-0.002654 -0.012214 0.140321 
0.025511 0.140321 -0.001082 

-0.011212 -0.004230 0.090231 
-0.004230 0.002930 0.036677 
0.090231 0.036677 0.009638 

0.001825 -0.004628 -0.014146 
-0.004628 -0.002012 0.156850 
-0.014146 0.156850 0.011983 

0.015130 -0.004735 0.000655 
-0.004735 -0.002011 -0.041643 
0.000655 -0.041643 -0.005372 

0.001108 -0.013061 0.077435 
-0.013061 -0.008477 0.042481 
0.077435 0.042481 -0.000462 

-0.009205 -0.010315 0.047477 
-0.010315 0.009488 0.002873 
0.047477 0.002873 0.011119 

0.001330 0.009297 0.044307 
0.009297 0.007929 0.008707 
0.044307 0.008707 -0.003231 

0.023964 -0.006334 -0.012098 
-0.006334 -0.008847 0.113970 
-0.012098 0.113970 -0.022722 

0.004100 -0.011036 0.157791 
-0.011036 -0.011604 0.042222 
0.157791 0.042222 -0.005074 

0.005402 -0.006584 0.012154 
-0.006584 -0.014313 0.102966 
0.012154 0.102966 -0.002059 

0.008181 -0.012867 0.098342 
-0.012867 -0.016101 0.053787 
0.098342 0.053787 -0.001009 

-0.018964 0.001503 0.088882 
0.001503 0.004742 0.002929 
0.088882 0.002929 0.003559 

-0.034798 -0.031093 0.090126 
-0.031093 0.002362 0.111725 
0.090126 0.111725 0.005588 

-0.016333 -0.010026 0.001981 
-0.010026 0.000145 -0.017929 
0.001981 -0.017929 0.017355 

-0.016333 -0.007595 0.008960 
-0.007595 0.000488 0.010501 
0.008960 0.010501 0.004065 

0.014990 0.003009 0.010606 
0.003009 -0.001963 -0.001133 
0.010606 -0.001133 0.000084 

0.035533 0.015232 -0.011526 
0.015232 -0.001324 0.004962 
-0.011526 0.004962 -0.018107 

0.002058 0.005185 0.105492 
0.005185 0.003548 0.001321 
0.105492 0.001321 0.007387 

-0.009787 -0.005079 0.048532 
-0.005079 0.007790 0.111989 
0.048532 0.111989 -0.006906 

0.023330 -0.007065 0.021891 
-0.007065 -0.013691 0.080863 
0.021891 0.080863 -0.010062 

0.004602 -0.002718 0.103818 
-0.002718 -0.026962 0.086930 
0.103818 0.086930 -0.005811 

-0.030712 0.009275 0.119759 
0.009275 -0.010784 0.090934 
0.119759 0.090934 0.036325 

-0.010379 0.035189 -0.019758 
0.035189 0.025785 0.038633 
-0.019758 0.038633 0.009764 

0.013466 0.000622 -0.026539 
0.000622 -0.006899 0.104553 
-0.026539 0.104553 -0.015613 

-0.009640 0.002610 0.078765 
0.002610 0.003577 0.019907 
0.078765 0.019907 -0.014757 

-0.006693 0.012589 0.041541 
0.012589 0.002694 0.008978 
0.041541 0.008978 0.037217 

0.004473 0.008356 -0.030425 
0.008356 0.005701 0.051847 
-0.030425 0.051847 -0.020036 

-0.009999 0.004857 0.093891 
0.004857 0.000491 -0.018171 
0.093891 -0.018171 0.004721 

-0.001812 0.010343 -0.007383 
0.010343 0.011599 0.097524 
-0.007383 0.097524 0.004031 

0.002797 0.018466 0.002599 
0.018466 0.000342 0.024737 
0.002599 0.024737 -0.006459 

-0.003900 0.009827 0.042253 
0.009827 0.011578 0.068365 
0.042253 0.068365 -0.008050 

0.012486 0.019132 -0.021636 
0.019132 -0.010845 0.069019 
-0.021636 0.069019 -0.003303 

0.010057 0.003154 0.082729 
0.003154 -0.016945 0.081284 
0.082729 0.081284 0.014265 

0.020098 0.009681 -0.050694 
0.009681 -0.007954 0.066213 
-0.050694 0.066213 0.004841 

0.011193 -0.005688 0.103621 
-0.005688 -0.018062 0.040660 
0.103621 0.040660 -0.000419 

-0.014588 -0.017839 0.069096 
-0.017839 -0.005821 0.042629 
0.069096 0.042629 0.011196 

-0.022172 -0.004970 0.060096 
-0.004970 0.021615 -0.009730 
0.060096 -0.009730 -0.004792 

-0.021152 -0.030563 0.065664 
-0.030563 -0.006614 0.065378 
0.065664 0.065378 0.021283 

-0.011471 -0.009279 0.003276 
-0.009279 -0.004625 -0.004324 
0.003276 -0.004324 0.009619 

-0.011471 -0.006734 0.004992 
-0.006734 -0.000471 0.004055 
0.004992 0.004055 0.005883 

0.011349 0.001991 0.003187 
0.001991 -0.003473 0.001178 
0.003187 0.001178 -0.004885 

0.012945 0.014579 0.006189 
0.014579 0.003640 -0.000200 
0.006189 -0.000200 -0.005823 

0.000829 0.012018 0.043502 
0.012018 0.029322 0.008776 
0.043502 0.008776 -0.027836 

0.014314 0.002204 0.045406 
0.002204 -0.025338 0.094268 
0.045406 0.094268 0.024060 

0.036821 0.003027 -0.018386 
0.003027 -0.021610 0.091205 
-0.018386 0.091205 0.002106 

0.018600 -0.003832 0.092720 
-0.003832 -0.003062 0.016943 
0.092720 0.016943 -0.014385 

-0.009660 -0.004076 0.118496 
-0.004076 -0.002118 -0.021904 
0.118496 -0.021904 -0.000869 

-0.018072 -0.010033 0.103889 
-0.010033 -0.007437 0.103160 
0.103889 0.103160 -0.004069 

-0.016819 -0.012013 0.098789 
-0.012013 -0.012223 0.104982 
0.098789 0.104982 0.020559 

-0.007519 -0.001020 0.032708 
-0.001020 -0.000804 0.071557 
0.032708 0.071557 0.010404 

0.006370 0.020249 0.023832 
0.020249 -0.001856 0.021604 
0.023832 0.021604 -0.019238 

0.009015 0.007733 0.060074 
0.007733 -0.004982 0.118583 
0.060074 0.118583 -0.000538 

-0.004170 0.005333 0.041284 
0.005333 -0.012782 0.103677 
0.041284 0.103677 -0.011429 

-0.010285 -0.002823 0.084018 
-0.002823 -0.000565 0.032308 
0.084018 0.032308 0.001264 

0.001238 0.022756 0.019723 
0.022756 0.008993 0.003309 
0.019723 0.003309 0.002233 

-0.003990 0.001625 0.056222 
0.001625 -0.010845 0.090928 
0.056222 0.090928 -0.007784 

0.008931 0.020683 0.041572 
0.020683 -0.005051 -0.005643 
0.041572 -0.005643 0.014261 

0.018558 -0.005726 0.015711 
-0.005726 0.003715 0.035128 
0.015711 0.035128 -0.015654 

-0.004468 -0.024544 0.159565 
-0.024544 0.007645 0.011958 
0.159565 0.011958 -0.008016 

-0.017384 -0.009703 0.037902 
-0.009703 0.006732 0.018686 
0.037902 0.018686 0.014909 

-0.017135 0.003114 0.064436 
0.003114 0.002610 0.030007 
0.064436 0.030007 0.014404 

-0.011538 0.004278 -0.009950 
0.004278 -0.003728 0.060048 
-0.009950 0.060048 -0.007692 

-0.009632 -0.005400 0.012455 
-0.005400 -0.000948 0.046937 
0.012455 0.046937 0.000725 

-0.006380 -0.000251 0.006047 
-0.000251 0.000559 -0.008983 
0.006047 -0.008983 0.004990 

-0.006380 -0.005156 0.003050 
-0.005156 -0.000479 0.006650 
0.003050 0.006650 0.006690 

0.004205 0.003863 -0.000636 
0.003863 -0.000208 0.008066 
-0.000636 0.008066 -0.006460 

0.005958 0.030036 0.012427 
0.030036 -0.000460 -0.020148 
0.012427 -0.020148 0.002234 

0.026222 0.002522 -0.014666 
0.002522 -0.009333 0.123310 
-0.014666 0.123310 -0.022337 

0.035824 0.009657 0.027077 
0.009657 -0.020868 0.014411 
0.027077 0.014411 -0.005637 

-0.001548 -0.006731 0.105407 
-0.006731 -0.009466 0.021498 
0.105407 0.021498 -0.009248 

-0.012268 0.003897 0.082751 
0.003897 -0.002955 0.062145 
0.082751 0.062145 0.010432 

0.016904 0.017226 -0.021355 
0.017226 -0.003076 0.088436 
-0.021355 0.088436 -0.005341 

-0.003751 -0.018140 0.102962 
-0.018140 -0.031599 0.100033 
0.102962 0.100033 -0.009898 

-0.017733 -0.022148 0.089952 
-0.022148 -0.007194 0.029019 
0.089952 0.029019 0.027860 

0.013292 -0.005448 0.005405 
-0.005448 -0.004154 0.031427 
0.005405 0.031427 0.004260 

0.011083 0.004940 0.092415 
0.004940 -0.017769 0.082261 
0.092415 0.082261 -0.004784 

-0.000564 -0.020319 0.090708 
-0.020319 -0.002167 0.038704 
0.090708 0.038704 -0.001710 

-0.003260 -0.006203 0.104613 
-0.006203 -0.007617 0.013358 
0.104613 0.013358 0.022965 

-0.006340 -0.011755 0.060445 
-0.011755 -0.011536 0.129915 
0.060445 0.129915 0.013133 

0.008355 -0.006233 0.064755 
-0.006233 -0.000668 0.028206 
0.064755 0.028206 -0.014752 

-0.000898 -0.026808 0.104853 
-0.026808 -0.025047 0.092710 
0.104853 0.092710 0.003282 

-0.030578 -0.003995 0.118677 
-0.003995 -0.007458 0.040480 
0.118677 0.040480 0.016101 

-0.004531 -0.001247 0.011939 
-0.001247 -0.000491 0.078018 
0.011939 0.078018 0.014609 

0.009036 -0.014018 -0.024979 
-0.014018 0.005770 0.077085 
-0.024979 0.077085 -0.027815 

-0.011219 -0.010566 0.137350 
-0.010566 -0.003175 0.035181 
0.137350 0.035181 -0.000945 

0.012574 0.013990 -0.034601 
0.013990 -0.001666 -0.008871 
-0.034601 -0.008871 0.002158 

0.000708 -0.003086 0.083254 
-0.003086 -0.009170 0.084750 
0.083254 0.084750 -0.008291 

-0.032549 -0.033804 0.127101 
-0.033804 0.005347 0.046454 
0.127101 0.046454 0.013268 

-0.016191 -0.010108 -0.004819 
-0.010108 0.001985 -0.000452 
-0.004819 -0.000452 0.019035 

-0.016191 -0.003769 0.009156 
-0.003769 -0.000350 0.002077 
0.009156 0.002077 -0.000525 

0.005662 0.005466 0.005112 
0.005466 0.002888 0.010559 
0.005112 0.010559 0.001252 

0.029408 0.024915 -0.007406 
0.024915 -0.006599 -0.025236 
-0.007406 -0.025236 -0.007852 

0.027124 -0.020949 0.050543 
-0.020949 -0.041532 0.135697 
0.050543 0.135697 0.002842 

0.008091 -0.007897 0.094885 
-0.007897 -0.013192 0.002441 
0.094885 0.002441 0.000107 

0.012661 -0.011871 0.020764 
-0.011871 -0.023940 0.091875 
0.020764 0.091875 -0.003016 

-0.009726 -0.003282 0.105234 
-0.003282 -0.028833 0.060453 
0.105234 0.060453 0.009570 

-0.015885 0.000361 0.042914 
0.000361 -0.001629 0.000618 
0.042914 0.000618 0.007081 

-0.009692 0.003036 0.056783 
0.003036 -0.021671 0.054170 
0.056783 0.054170 0.026325 

0.005238 -0.010030 -0.001984 
-0.010030 -0.021171 0.070730 
-0.001984 0.070730 0.004051 

0.014416 -0.007572 0.013539 
-0.007572 -0.014284 0.056603 
0.013539 0.056603 -0.021777 

-0.005014 0.014904 0.091353 
0.014904 -0.010627 -0.029306 
0.091353 -0.029306 0.010215 

0.002869 -0.009489 -0.009915 
-0.009489 -0.023564 0.147244 
-0.009915 0.147244 0.009173 

0.005518 0.002294 0.025905 
0.002294 -0.000113 -0.003322 
0.025905 -0.003322 -0.026310 

-0.013113 -0.007073 0.079084 
-0.007073 -0.004689 -0.013050 
0.079084 -0.013050 0.003227 

-0.009049 -0.010291 0.042031 
-0.010291 -0.015754 0.083965 
0.042031 0.083965 0.021440 

0.006735 -0.005123 -0.027819 
-0.005123 -0.011273 0.002566 
-0.027819 0.002566 0.004688 

-0.006936 -0.002275 0.087171 
-0.002275 -0.008008 -0.013133 
0.087171 -0.013133 -0.004826 

-0.010687 -0.004177 0.017679 
-0.004177 -0.026535 0.076608 
0.017679 0.076608 0.021601 

0.002975 -0.008636 0.047667 
-0.008636 -0.014283 0.060475 
0.047667 0.060475 0.003425 

0.020639 0.013075 -0.044772 
0.013075 -0.022317 0.036345 
-0.044772 0.036345 0.002197 

-0.003315 0.008903 0.074651 
0.008903 -0.016540 0.084909 
0.074651 0.084909 -0.014584 

-0.027853 0.003588 0.058893 
0.003588 0.012220 -0.037302 
0.058893 -0.037302 0.008807 

-0.015825 -0.018471 -0.025218 
-0.018471 -0.004620 0.077481 
-0.025218 0.077481 0.007973 

-0.003513 -0.003969 0.008600 
-0.003969 -0.002778 -0.011860 
0.008600 -0.011860 -0.001395 

-0.003513 -0.007131 0.000600 
-0.007131 0.001273 0.007214 
0.000600 0.007214 0.007819 

0.002292 0.001958 0.002016 
0.001958 0.000871 -0.001067 
0.002016 -0.001067 0.000628 

0.018821 0.009436 -0.004039 
0.009436 -0.002779 0.003170 
-0.004039 0.003170 -0.003583 

0.016924 -0.008302 0.015992 
-0.008302 -0.021188 -0.002898 
0.015992 -0.002898 0.011009 

0.010076 -0.015969 0.046878 
-0.015969 -0.017449 0.038134 
0.046878 0.038134 0.006249 

0.029426 -0.020375 0.013175 
-0.020375 -0.021610 0.022358 
0.013175 0.022358 0.009366 

0.001847 -0.019281 0.108893 
-0.019281 -0.018222 -0.028572 
0.108893 -0.028572 -0.006767 

-0.025522 -0.044791 0.117045 
-0.044791 -0.024815 0.145312 
0.117045 0.145312 0.011643 

-0.012381 -0.013156 0.051046 
-0.013156 -0.011603 -0.023254 
0.051046 -0.023254 0.025540 

0.016379 -0.017192 0.019257 
-0.017192 -0.026323 0.062885 
0.019257 0.062885 0.011722 

0.010498 -0.029077 0.072070 
-0.029077 -0.024673 0.065401 
0.072070 0.065401 -0.000575 

0.001675 -0.017821 0.088827 
-0.017821 -0.013563 0.040934 
0.088827 0.040934 -0.002663 

0.000104 -0.028623 0.086845 
-0.028623 -0.029756 0.037614 
0.086845 0.037614 0.023754 

-0.008122 -0.029280 0.098070 
-0.029280 -0.020930 0.092994 
0.098070 0.092994 0.007737 

-0.002120 -0.029983 0.039271 
-0.029983 -0.020194 0.102282 
0.039271 0.102282 -0.001144 

-0.016932 -0.030169 0.097351 
-0.030169 -0.018871 0.021261 
0.097351 0.021261 0.012219 

-0.014942 -0.015297 0.055716 
-0.015297 -0.006558 0.027589 
0.055716 0.027589 0.020018 

0.008112 -0.006453 -0.024627 
-0.006453 -0.011295 0.058243 
-0.024627 0.058243 -0.005255 

0.014988 -0.004987 0.080195 
-0.004987 -0.021846 -0.008333 
0.080195 -0.008333 0.009757 

0.022977 -0.037303 0.005891 
-0.037303 -0.034055 0.112808 
0.005891 0.112808 0.003959 

0.004053 -0.027490 0.148898 
-0.027490 -0.012468 -0.011032 
0.148898 -0.011032 -0.005759 

-0.017703 -0.017475 0.092506 
-0.017475 -0.010082 -0.010462 
0.092506 -0.010462 0.025514 

-0.021218 -0.029805 0.068973 
-0.029805 -0.022050 0.136433 
0.068973 0.136433 -0.000044 

-0.018514 -0.032641 0.065016 
-0.032641 -0.020271 0.061702 
0.065016 0.061702 0.023525 

-0.009837 -0.007825 -0.001235 
-0.007825 0.000856 -0.007374 
-0.001235 -0.007374 0.007546 

-0.009837 -0.004672 0.004458 
-0.004672 0.001110 0.005768 
0.004458 0.005768 0.002189 

0.000425 0.000454 -0.000711 
0.000454 0.000057 0.000122 
-0.000711 0.000122 -0.000580 

0.001214 0.001119 0.001495 
0.001119 -0.000510 0.000121 
0.001495 0.000121 0.000838 

0.004374 0.002566 -0.002973 
0.002566 -0.001416 0.000992 
-0.002973 0.000992 -0.001576 

0.005341 -0.004404 -0.007698 
-0.004404 -0.008142 0.000010 
-0.007698 0.000010 0.005066 

-0.000898 -0.005219 0.005733 
-0.005219 -0.003779 0.000013 
0.005733 0.000013 0.002500 

0.002360 0.005301 -0.024162 
0.005301 -0.000148 0.004618 
-0.024162 0.004618 -0.001612 

0.002219 -0.011329 -0.015871 
-0.011329 -0.019987 -0.004958 
-0.015871 -0.004958 0.021424 

-0.003398 -0.006536 -0.003979 
-0.006536 -0.006761 0.011872 
-0.003979 0.011872 -0.002950 

0.002065 -0.004235 -0.001062 
-0.004235 -0.009535 -0.000747 
-0.001062 -0.000747 0.009926 

0.000733 -0.006088 -0.009003 
-0.006088 -0.010232 -0.000218 
-0.009003 -0.000218 0.011836 

-0.000843 -0.004797 -0.012359 
-0.004797 -0.008063 0.002679 
-0.012359 0.002679 0.008660 

0.000489 -0.001937 -0.013931 
-0.001937 -0.008560 0.002516 
-0.013931 0.002516 0.004757 

0.002055 -0.006440 -0.017144 
-0.006440 -0.016190 0.001328 
-0.017144 0.001328 0.015669 

-0.000607 -0.011519 0.002274 
-0.011519 -0.016191 0.000690 
0.002274 0.000690 0.018886 

-0.004194 -0.006578 -0.014065 
-0.006578 -0.006309 0.003975 
-0.014065 0.003975 0.004999 

-0.002835 -0.004647 -0.009327 
-0.004647 -0.007285 0.004530 
-0.009327 0.004530 0.003089 

-0.000883 -0.003515 0.012336 
-0.003515 -0.007344 -0.001406 
0.012336 -0.001406 0.011420 

0.005234 0.001446 -0.019069 
0.001446 -0.004775 0.006043 
-0.019069 0.006043 -0.000538 

0.005372 -0.011437 0.008132 
-0.011437 -0.015293 -0.004959 
0.008132 -0.004959 0.017387 

-0.007142 -0.006469 -0.023994 
-0.006469 -0.000689 0.004249 
-0.023994 0.004249 0.001627 

-0.000520 0.004616 -0.019021 
0.004616 -0.001865 0.005497 
-0.019021 0.005497 -0.004266 

0.005182 -0.008077 -0.009743 
-0.008077 -0.020536 -0.003134 
-0.009743 -0.003134 0.023689 

-0.002786 -0.014445 -0.004010 
-0.014445 -0.013972 0.003934 
-0.004010 0.003934 0.009265 

-0.003531 -0.004910 0.004572 
-0.004910 -0.001352 0.004476 
0.004572 0.004476 -0.001242 

-0.003531 -0.003446 0.000111 
-0.003446 -0.000029 0.000022 
0.000111 0.000022 0.004285 

-0.000307 0.000171 0.000188 
0.000171 0.000057 -0.000304 
0.000188 -0.000304 0.000514 

-0.000174 0.000666 -0.000912 
0.000666 -0.000510 0.000388 
-0.000912 0.000388 0.000056 

0.001118 -0.000797 0.000977 
-0.000797 -0.001416 0.000718 
0.000977 0.000718 0.001740 

0.000242 -0.002223 0.004097 
-0.002223 -0.008142 0.002063 
0.004097 0.002063 0.000585 

-0.002391 -0.003403 -0.002159 
-0.003403 -0.003779 0.002465 
-0.002159 0.002465 0.001786 

0.000830 -0.004619 0.010945 
-0.004619 -0.000148 0.001434 
0.010945 0.001434 0.005268 

0.004207 -0.004715 0.007267 
-0.004715 -0.019987 0.009104 
0.007267 0.009104 -0.001534 

0.001887 -0.007923 0.003590 
-0.007923 -0.006761 -0.000575 
0.003590 -0.000575 0.010343 

-0.001644 -0.004583 0.003096 
-0.004583 -0.009535 0.006361 
0.003096 0.006361 0.002789 

-0.001660 -0.005004 0.005464 
-0.005004 -0.010232 0.005857 
0.005464 0.005857 0.002093 

-0.001056 -0.005045 0.006672 
-0.005045 -0.008063 0.004145 
0.006672 0.004145 0.003722 

0.001271 -0.005752 0.007023 
-0.005752 -0.008560 0.004396 
0.007023 0.004396 0.005713 

0.002894 -0.006441 0.009287 
-0.006441 -0.016190 0.006854 
0.009287 0.006854 0.003033 

0.000170 -0.006578 0.001314 
-0.006578 -0.016191 0.007927 
0.001314 0.007927 0.001853 

-0.000288 -0.007066 0.008134 
-0.007066 -0.006309 0.004205 
0.008134 0.004205 0.005795 

-0.000339 -0.004676 0.006554 
-0.004676 -0.007285 0.001307 
0.006554 0.001307 0.006200 

-0.001229 -0.002231 -0.004092 
-0.002231 -0.007344 0.006149 
-0.004092 0.006149 0.000891 

0.000551 -0.003813 0.010079 
-0.003813 -0.004775 0.000675 
0.010079 0.000675 0.006149 

-0.002721 -0.004135 -0.001804 
-0.004135 -0.015293 0.007781 
-0.001804 0.007781 -0.001947 

-0.001844 -0.007056 0.011309 
-0.007056 -0.000689 0.002043 
0.011309 0.002043 0.004349 

0.002189 -0.004719 0.008934 
-0.004719 -0.001865 -0.000087 
0.008934 -0.000087 0.007956 

0.005170 -0.004795 0.005705 
-0.004795 -0.020536 0.010081 
0.005705 0.010081 -0.001275 

0.003255 -0.008135 0.004486 
-0.008135 -0.013972 0.004213 
0.004486 0.004213 0.004527 

-0.000604 -0.004248 0.000835 
-0.004248 -0.001352 0.000770 
0.000835 0.000770 0.004316 

-0.000604 -0.002784 0.002328 
-0.002784 -0.000029 0.001736 
0.002328 0.001736 0.004589 

-0.001231 0.001598 0.002879 
0.001598 -0.002503 0.002147 
0.002879 0.002147 -0.004159 

-0.000405 0.008058 0.000508 
0.008058 0.006618 0.001090 
0.000508 0.001090 -0.005386 

-0.002618 0.002635 0.003432 
0.002635 0.008949 0.006797 
0.003432 0.006797 -0.000019 

-0.003842 -0.002327 0.005567 
-0.002327 0.015390 0.004445 
0.005567 0.004445 -0.007884 

0.000973 -0.001322 0.003634 
-0.001322 0.007648 0.007074 
0.003634 0.007074 -0.002261 

0.004875 0.000627 0.005011 
0.000627 0.010366 0.003420 
0.005011 0.003420 -0.006638 

-0.007682 -0.002986 0.009287 
-0.002986 0.004214 0.005424 
0.009287 0.005424 -0.005352 

0.008171 0.011128 -0.004704 
0.011128 0.010044 0.005687 
-0.004704 0.005687 -0.003009 

-0.003620 -0.006839 0.012669 
-0.006839 0.013185 0.004568 
0.012669 0.004568 -0.003275 

-0.003039 -0.002207 0.008060 
-0.002207 0.005421 0.004565 
0.008060 0.004565 -0.004706 

0.002606 0.005639 0.000724 
0.005639 0.004771 0.005826 
0.000724 0.005826 -0.000040 

0.002060 0.000823 0.004639 
0.000823 0.011334 0.002695 
0.004639 0.002695 -0.004135 

-0.003559 -0.002135 0.007287 
-0.002135 0.003156 0.004549 
0.007287 0.004549 -0.003150 

0.002698 0.007126 -0.001059 
0.007126 0.007925 0.003746 
-0.001059 0.003746 -0.006137 

-0.000497 0.000846 0.004099 
0.000846 0.010558 0.005770 
0.004099 0.005770 -0.000855 

-0.005461 -0.003178 0.005877 
-0.003178 0.008504 0.005698 
0.005877 0.005698 -0.004508 

0.007770 0.005296 -0.001205 
0.005296 0.008739 0.005443 
-0.001205 0.005443 -0.002789 

-0.003981 -0.006317 0.012203 
-0.006317 0.009340 0.003642 
0.012203 0.003642 -0.004788 

-0.002699 0.000522 0.005616 
0.000522 0.005022 0.004833 
0.005616 0.004833 -0.004331 

0.003572 0.003425 0.002118 
0.003425 0.008928 0.005086 
0.002118 0.005086 0.001200 

-0.009922 -0.008398 0.010278 
-0.008398 0.006335 0.002714 
0.010278 0.002714 -0.003557 

0.010789 0.007150 -0.003996 
0.007150 0.004449 0.001030 
-0.003996 0.001030 -0.003577 

-0.008936 -0.011176 0.013513 
-0.011176 0.003513 0.000420 
0.013513 0.000420 -0.001559 

0.003325 0.002978 -0.002844 
0.002978 -0.004398 0.001460 
-0.002844 0.001460 0.001981 

0.003325 -0.000995 0.000916 
-0.000995 0.001711 -0.001872 
0.000916 -0.001872 -0.000244 

0.007010 0.008634 0.000511 
0.008634 0.006993 -0.001126 
0.000511 -0.001126 -0.004397 

-0.005895 0.006909 0.005321 
0.006909 -0.019347 0.008380 
0.005321 0.008380 0.002332 

-0.007704 0.025057 -0.002409 
0.025057 0.132187 -0.009065 
-0.002409 -0.009065 -0.017331 

0.001888 0.032888 -0.009154 
0.032888 0.049773 0.007547 
-0.009154 0.007547 -0.005271 

-0.000636 0.038687 -0.006511 
0.038687 0.099637 -0.004918 
-0.006511 -0.004918 -0.015855 

-0.001946 0.043019 -0.008709 
0.043019 0.042295 0.004647 
-0.008709 0.004647 -0.006091 

0.022463 0.063297 -0.017483 
0.063297 0.043807 0.002372 
-0.017483 0.002372 -0.006722 

-0.027443 0.007866 0.014904 
0.007866 0.084782 -0.002727 
0.014904 -0.002727 -0.014178 

0.006848 0.084218 -0.024860 
0.084218 0.090287 -0.002124 
-0.024860 -0.002124 -0.013821 

0.011861 0.073079 -0.015974 
0.073079 0.033582 0.003939 
-0.015974 0.003939 -0.007512 

-0.010307 0.032757 0.002187 
0.032757 0.104977 -0.007518 
0.002187 -0.007518 -0.015413 

-0.004127 0.039636 -0.006868 
0.039636 0.051656 0.002195 
-0.006868 0.002195 -0.007583 

0.014184 0.052947 -0.013148 
0.052947 0.052831 -0.000209 
-0.013148 -0.000209 -0.007079 

-0.010228 0.009986 0.006130 
0.009986 0.039680 0.004742 
0.006130 0.004742 -0.003003 

-0.003861 0.031534 -0.005984 
0.031534 0.110733 -0.006681 
-0.005984 -0.006681 -0.018147 

0.012029 0.038036 -0.010246 
0.038036 0.068014 0.001194 
-0.010246 0.001194 -0.010574 

-0.017548 0.014291 0.005122 
0.014291 0.083953 -0.003304 
0.005122 -0.003304 -0.014154 

0.013238 0.077334 -0.024630 
0.077334 0.044150 0.002063 
-0.024630 0.002063 -0.008906 

0.001926 0.060987 -0.010546 
0.060987 0.038607 0.002333 
-0.010546 0.002333 -0.006688 

-0.016852 0.041714 -0.002326 
0.041714 0.121763 -0.009250 
-0.002326 -0.009250 -0.018108 

0.020370 0.063762 -0.020811 
0.063762 0.023255 0.004162 
-0.020811 0.004162 -0.003723 

-0.028438 0.010563 0.008987 
0.010563 0.010465 0.003662 
0.008987 0.003662 0.001716 

0.022119 0.072409 -0.030788 
0.072409 0.022708 0.000937 
-0.030788 0.000937 0.000522 

-0.004620 0.002426 0.006714 
0.002426 0.006070 -0.002629 
0.006714 -0.002629 -0.003581 

-0.004620 0.003519 -0.000668 
0.003519 -0.000078 0.000846 
-0.000668 0.000846 0.003496 

0.005672 -0.005782 0.002596 
-0.005782 -0.004425 0.012625 
0.002596 0.012625 -0.003295 

0.031645 0.081287 0.000906 
0.081287 0.013679 -0.023760 
0.000906 -0.023760 -0.003381 

0.026977 -0.053649 0.030693 
-0.053649 -0.021039 0.134543 
0.030693 0.134543 -0.023285 

0.006749 0.003136 0.056515 
0.003136 0.076048 0.030416 
0.056515 0.030416 -0.026704 

0.011390 -0.016827 0.053552 
-0.016827 -0.038398 0.103630 
0.053552 0.103630 -0.009196 

0.027033 -0.022014 0.058959 
-0.022014 0.025489 0.038369 
0.058959 0.038369 -0.015765 

-0.083792 -0.014512 0.102897 
-0.014512 0.067755 0.028064 
0.102897 0.028064 -0.003815 

0.136486 0.075123 -0.025124 
0.075123 -0.059657 0.091161 
-0.025124 0.091161 -0.008930 

-0.021340 -0.061851 0.137191 
-0.061851 -0.079027 0.105078 
0.137191 0.105078 -0.023879 

-0.076789 0.036465 0.105680 
0.036465 0.057544 0.019516 
0.105680 0.019516 0.008084 

0.014912 -0.008816 0.026041 
-0.008816 -0.034034 0.104999 
0.026041 0.104999 -0.002039 

0.009276 0.031799 0.051107 
0.031799 -0.021981 0.052086 
0.051107 0.052086 -0.012917 

-0.070382 -0.021328 0.075504 
-0.021328 0.061641 0.040880 
0.075504 0.040880 -0.005891 

0.037193 0.041182 0.000070 
0.041182 0.104880 0.017907 
0.000070 0.017907 -0.018361 

0.011536 -0.002433 0.046543 
-0.002433 -0.127154 0.126908 
0.046543 0.126908 -0.008013 

-0.035284 -0.007477 0.059211 
-0.007477 0.054591 0.058769 
0.059211 0.058769 -0.011558 

0.111364 -0.011060 0.004428 
-0.011060 -0.068436 0.096271 
0.004428 0.096271 -0.013297 

-0.024139 -0.060392 0.130490 
-0.060392 -0.055105 0.056142 
0.130490 0.056142 -0.012808 

-0.031304 0.012050 0.086813 
0.012050 0.040877 0.025676 
0.086813 0.025676 -0.001114 

0.029760 -0.019619 0.045459 
-0.019619 -0.100226 0.132055 
0.045459 0.132055 -0.006017 

-0.087781 -0.016720 0.101550 
-0.016720 0.075210 0.009347 
0.101550 0.009347 -0.002536 

0.099650 0.015298 -0.009445 
0.015298 0.072966 -0.003419 
-0.009445 -0.003419 -0.015435 

-0.129119 -0.066579 0.146634 
-0.066579 0.081311 0.008770 
0.146634 0.008770 -0.015355 

-0.002432 0.003523 -0.013616 
0.003523 -0.004610 -0.000130 
-0.013616 -0.000130 0.023481 

-0.002432 -0.000857 0.004957 
-0.000857 0.006651 -0.000390 
0.004957 -0.000390 -0.006429 

0.004048 0.003766 0.002059 
0.003766 0.004467 0.005479 
0.002059 0.005479 -0.004890 

-0.003034 0.065205 0.005313 
0.065205 -0.005358 -0.007764 
0.005313 -0.007764 -0.000812 

0.027289 0.048807 -0.009732 
0.048807 0.033020 0.080516 
-0.009732 0.080516 -0.000605 

0.067288 0.016446 -0.000660 
0.016446 -0.140717 0.129927 
-0.000660 0.129927 -0.004666 

-0.054473 -0.014366 0.072693 
-0.014366 0.043497 0.031704 
0.072693 0.031704 -0.000565 

-0.009003 0.055516 0.002543 
0.055516 0.067784 0.037244 
0.002543 0.037244 0.002780 

0.135552 0.027145 -0.017135 
0.027145 0.018732 0.089963 
-0.017135 0.089963 -0.031805 

-0.064026 -0.074344 0.150686 
-0.074344 0.028001 0.008934 
0.150686 0.008934 -0.003012 

0.041283 0.027535 0.035123 
0.027535 0.022827 -0.004439 
0.035123 -0.004439 0.016689 

-0.050643 -0.033573 0.099694 
-0.033573 0.063991 0.060398 
0.099694 0.060398 -0.014802 

0.053108 0.010964 0.035498 
0.010964 0.011976 0.039416 
0.035498 0.039416 0.007861 

-0.095871 -0.019058 0.122723 
-0.019058 0.033714 0.010769 
0.122723 0.010769 0.005233 

-0.028209 0.016013 0.015718 
0.016013 -0.018877 0.087056 
0.015718 0.087056 0.019721 

0.068059 -0.010108 -0.011593 
-0.010108 -0.135407 0.145862 
-0.011593 0.145862 -0.004852 

-0.054819 0.084404 0.075745 
0.084404 0.097905 -0.052402 
0.075745 -0.052402 0.005137 

0.013469 -0.039799 0.000426 
-0.039799 -0.108009 0.127612 
0.000426 0.127612 0.017347 

-0.018733 0.034989 0.026403 
0.034989 0.034185 0.000955 
0.026403 0.000955 0.010069 

0.027364 0.045280 -0.001716 
0.045280 0.053732 -0.017802 
-0.001716 -0.017802 0.005416 

0.092338 -0.014630 0.012848 
-0.014630 -0.082252 0.080103 
0.012848 0.080103 -0.006838 

-0.047643 0.010333 0.117196 
0.010333 0.113242 -0.023890 
0.117196 -0.023890 -0.002917 

-0.050533 -0.053189 0.062694 
-0.053189 0.010136 0.076362 
0.062694 0.076362 0.006244 

-0.030825 0.054199 0.019432 
0.054199 -0.004782 0.057552 
0.019432 0.057552 -0.001181 

-0.010678 0.006105 -0.003208 
0.006105 -0.007314 0.091869 
-0.003208 0.091869 -0.003640 

-0.011191 0.002479 0.007816 
0.002479 0.013317 -0.016060 
0.007816 -0.016060 0.002102 

-0.011191 0.004705 0.001366 
0.004705 -0.000689 0.007428 
0.001366 0.007428 0.005275 

0.003990 -0.001205 0.004029 
-0.001205 -0.004415 0.011722 
0.004029 0.011722 -0.002222 

0.067556 0.087460 -0.002680 
0.087460 0.005229 -0.020654 
-0.002680 -0.020654 -0.006653 

0.060843 -0.077737 0.059540 
-0.077737 -0.044595 0.135395 
0.059540 0.135395 -0.018640 

-0.072205 0.006668 0.120776 
0.006668 0.032192 -0.042854 
0.120776 -0.042854 0.024537 

0.051422 0.035692 0.008550 
0.035692 -0.064471 0.096444 
0.008550 0.096444 0.008074 

0.052893 0.016610 0.066655 
0.016610 -0.026287 0.105599 
0.066655 0.105599 -0.030583 

-0.135390 -0.062475 0.143012 
-0.062475 0.001440 0.100704 
0.143012 0.100704 0.008139 

0.057223 0.012792 -0.033662 
0.012792 -0.047497 0.054286 
-0.033662 0.054286 0.014560 

0.013208 0.084358 0.050438 
0.084358 0.041430 0.022487 
0.050438 0.022487 -0.021260 

0.051509 -0.054789 0.050048 
-0.054789 -0.029054 0.128284 
0.050048 0.128284 -0.017238 

-0.121540 -0.059246 0.128011 
-0.059246 0.064387 0.039364 
0.128011 0.039364 -0.002832 

0.015760 0.034844 -0.013372 
0.034844 0.054383 0.031880 
-0.013372 0.031880 0.005073 

0.111975 -0.035132 0.015742 
-0.035132 0.039668 0.050805 
0.015742 0.050805 -0.024203 

-0.038600 -0.016664 0.138965 
-0.016664 0.073709 -0.035016 
0.138965 -0.035016 -0.001032 

-0.054719 -0.062071 0.088568 
-0.062071 -0.060243 0.096070 
0.088568 0.096070 0.015591 

0.082605 0.005995 0.016222 
0.005995 -0.016251 -0.005421 
0.016222 -0.005421 0.010346 

-0.112235 -0.014216 0.126807 
-0.014216 0.084248 0.033767 
0.126807 0.033767 -0.018904 

0.051247 0.019614 -0.012941 
0.019614 0.004136 0.045372 
-0.012941 0.045372 0.003626 

0.012707 0.056576 0.057646 
0.056576 0.132916 -0.040518 
0.057646 -0.040518 -0.024013 

-0.080210 0.002449 0.068625 
0.002449 -0.010637 0.113848 
0.068625 0.113848 -0.009173 

0.126867 0.054973 -0.041955 
0.054973 0.027087 0.063719 
-0.041955 0.063719 -0.008863 

0.000532 -0.026853 0.120003 
-0.026853 0.035754 0.030680 
0.120003 0.030680 -0.028688 

-0.136873 -0.121311 0.138691 
-0.121311 0.066832 0.054540 
0.138691 0.054540 0.018526 

-0.006739 -0.001853 -0.009686 
-0.001853 -0.005574 -0.004690 
-0.009686 -0.004690 0.018921 

-0.006739 -0.002869 0.005715 
-0.002869 0.004167 0.003169 
0.005715 0.003169 -0.002001 

0.010179 0.003008 0.003627 
0.003008 0.000240 0.005822 
0.003627 0.005822 -0.002873 

0.052665 0.056891 0.001416 
0.056891 -0.009019 -0.008430 
0.001416 -0.008430 -0.009255 

-0.030023 -0.011462 0.044536 
-0.011462 -0.004343 0.079938 
0.044536 0.079938 0.004209 

0.067903 0.064163 -0.012694 
0.064163 0.077416 0.006776 
-0.012694 0.006776 -0.019324 

0.052727 0.054355 0.065808 
0.054355 -0.024351 0.024615 
0.065808 0.024615 -0.004736 

-0.044959 -0.016294 0.113007 
-0.016294 -0.081350 0.092051 
0.113007 0.092051 0.017558 

-0.038380 -0.072038 0.060308 
-0.072038 -0.090370 0.112971 
0.060308 0.112971 0.031567 

0.071512 0.020082 0.017862 
0.020082 0.036543 -0.018652 
0.017862 -0.018652 -0.003683 

-0.077768 0.021189 0.117833 
0.021189 0.065545 0.055815 
0.117833 0.055815 -0.017737 

-0.018079 0.028362 0.020127 
0.028362 -0.064561 0.088477 
0.020127 0.088477 0.030213 

0.026365 0.003468 0.008611 
0.003468 0.030092 0.099755 
0.008611 0.099755 -0.015478 

-0.018763 0.020510 0.052917 
0.020510 -0.082388 0.090777 
0.052917 0.090777 0.004853 

-0.008507 0.028105 0.018571 
0.028105 -0.079529 0.116074 
0.018571 0.116074 0.008616 

0.014128 -0.001151 0.004353 
-0.001151 -0.005577 0.071114 
0.004353 0.071114 -0.014901 

-0.018187 0.021656 0.029887 
0.021656 0.117299 -0.009319 
0.029887 -0.009319 -0.001798 

0.084389 0.117861 -0.003442 
0.117861 0.010920 -0.005551 
-0.003442 -0.005551 -0.009205 

-0.003128 -0.090644 0.093444 
-0.090644 -0.103429 0.144358 
0.093444 0.144358 -0.009329 

-0.062603 0.000801 0.089303 
0.000801 0.023153 0.020356 
0.089303 0.020356 0.013464 

0.073495 0.016310 0.012270 
0.016310 -0.027764 0.119424 
0.012270 0.119424 -0.017603 

0.031126 -0.005607 0.099135 
-0.005607 -0.100415 0.094432 
0.099135 0.094432 0.004088 

-0.086545 -0.064505 0.133136 
-0.064505 -0.036760 0.104377 
0.133136 0.104377 0.006709 

-0.084004 0.006709 0.040279 
0.006709 -0.064000 0.076925 
0.040279 0.076925 0.026026 

0.017738 -0.011907 -0.040473 
-0.011907 -0.001967 0.122989 
-0.040473 0.122989 -0.004194 

-0.008770 0.001868 0.011646 
0.001868 -0.003450 -0.018113 
0.011646 -0.018113 -0.001626 

-0.008770 0.001373 0.002582 
0.001373 0.003160 0.009359 
0.002582 0.009359 0.008431 

0.006274 -0.002042 0.005299 
-0.002042 -0.001339 0.007763 
0.005299 0.007763 -0.000730 

0.104847 0.061362 -0.006009 
0.061362 0.004305 -0.012736 
-0.006009 -0.012736 -0.012174 

0.035003 -0.056834 0.095464 
-0.056834 -0.036779 0.081998 
0.095464 0.081998 -0.017686 

-0.004501 -0.077073 0.109576 
-0.077073 0.015688 0.086518 
0.109576 0.086518 -0.018346 

-0.038645 0.005254 0.097884 
0.005254 -0.020948 0.011122 
0.097884 0.011122 0.007512 

-0.019466 0.020928 0.051757 
0.020928 0.060720 0.004062 
0.051757 0.004062 0.011792 

-0.045528 0.024021 0.045093 
0.024021 -0.004639 0.014393 
0.045093 0.014393 0.030388 

0.104294 0.070321 -0.014387 
0.070321 0.031007 0.030698 
-0.014387 0.030698 -0.018419 

-0.040030 -0.103417 0.124509 
-0.103417 -0.070618 0.135255 
0.124509 0.135255 -0.014838 

-0.025097 0.028929 0.067870 
0.028929 0.000516 0.008298 
0.067870 0.008298 0.026016 

0.024887 -0.064300 0.040813 
-0.064300 -0.027708 0.132902 
0.040813 0.132902 -0.002223 

0.053100 0.008520 0.061504 
0.008520 0.069986 -0.016479 
0.061504 -0.016479 -0.009840 

-0.056442 -0.022298 0.124028 
-0.022298 0.034879 0.013607 
0.124028 0.013607 0.012721 

0.025341 0.033925 0.047984 
0.033925 0.063422 0.035524 
0.047984 0.035524 0.000299 

0.018115 -0.089032 0.086372 
-0.089032 -0.038537 0.134083 
0.086372 0.134083 -0.028126 

-0.109801 -0.020246 0.124540 
-0.020246 0.063835 -0.002894 
0.124540 -0.002894 0.003569 

0.012317 0.023999 -0.006735 
0.023999 0.059785 0.004469 
-0.006735 0.004469 0.026154 

0.052973 0.017530 0.014080 
0.017530 0.033412 0.038944 
0.014080 0.038944 -0.020506 

0.017426 -0.067041 0.070609 
-0.067041 0.022969 0.059410 
0.070609 0.059410 -0.006116 

-0.051324 0.031951 0.084416 
0.031951 0.119202 -0.031684 
0.084416 -0.031684 0.001848 

-0.016289 -0.014924 0.027689 
-0.014924 -0.048307 0.071258 
0.027689 0.071258 0.031049 

0.086628 0.042781 0.012512 
0.042781 0.023724 -0.007441 
0.012512 -0.007441 -0.001921 

-0.121165 -0.132347 0.139959 
-0.132347 -0.074109 0.127230 
0.139959 0.127230 0.016460 

-0.009759 0.004875 -0.007736 
0.004875 0.018815 -0.022592 
-0.007736 -0.022592 0.019723 

-0.009759 0.004011 0.005380 
0.004011 -0.005400 0.012043 
0.005380 0.012043 -0.000175 

0.007476 0.002627 0.001708 
0.002627 -0.000102 0.003988 
0.001708 0.003988 -0.008102 

-0.019741 0.040079 0.011393 
0.040079 0.005738 -0.005192 
0.011393 -0.005192 0.002233 

0.091827 0.104015 -0.039672 
0.104015 -0.029439 0.051918 
-0.039672 0.051918 0.001638 

0.062599 -0.084594 0.042990 
-0.084594 -0.096912 0.117864 
0.042990 0.117864 -0.007831 

-0.005352 0.054199 0.088136 
0.054199 0.018909 -0.019213 
0.088136 -0.019213 -0.003726 

-0.012231 -0.037168 0.081672 
-0.037168 0.038014 0.079710 
0.081672 0.079710 -0.012774 

-0.046404 -0.014972 0.088129 
-0.014972 0.101618 -0.002748 
0.088129 -0.002748 -0.012764 

-0.053506 0.023819 0.054389 
0.023819 0.049683 0.053842 
0.054389 0.053842 0.005778 

0.023295 0.003009 -0.007250 
0.003009 -0.055211 0.053261 
-0.007250 0.053261 0.025938 

0.038349 0.070856 0.016446 
0.070856 0.061865 0.018219 
0.016446 0.018219 -0.019617 

0.019625 -0.000073 0.047267 
-0.000073 -0.113530 0.116599 
0.047267 0.116599 0.010776 

-0.022958 0.000572 0.056250 
0.000572 -0.021156 0.083402 
0.056250 0.083402 -0.007051 

0.017657 0.068130 0.032039 
0.068130 0.069259 0.052131 
0.032039 0.052131 -0.017116 

-0.025720 -0.059347 0.070537 
-0.059347 -0.111538 0.123854 
0.070537 0.123854 0.005277 

0.007548 0.008059 0.028024 
0.008059 -0.001565 0.066031 
0.028024 0.066031 0.011985 

-0.039423 0.007062 0.050709 
0.007062 0.016091 0.055410 
0.050709 0.055410 -0.007811 

0.009434 0.014050 0.019831 
0.014050 0.023692 0.072060 
0.019831 0.072060 -0.011564 

-0.009877 0.007882 0.037351 
0.007882 -0.058910 0.084852 
0.037351 0.084852 0.005433 

0.066869 0.061164 -0.003543 
0.061164 -0.037571 0.090693 
-0.003543 0.090693 -0.010646 

-0.018833 -0.016305 0.070784 
-0.016305 -0.013210 0.116090 
0.070784 0.116090 -0.032721 

-0.062323 0.040754 0.058963 
0.040754 0.098691 0.000724 
0.058963 0.000724 0.006449 

0.007752 0.050775 -0.003258 
0.050775 0.021498 0.039175 
-0.003258 0.039175 -0.006169 

-0.021265 -0.023403 0.022085 
-0.023403 0.046783 0.039300 
0.022085 0.039300 0.004913 

-0.011489 -0.011838 0.006950 
-0.011838 -0.015861 0.002774 
0.006950 0.002774 0.006233 

-0.011489 -0.008091 0.002814 
-0.008091 0.004981 0.000745 
0.002814 0.000745 0.006313 

0.003503 0.005918 0.006847 
0.005918 0.001241 0.001640 
0.006847 0.001640 0.001784 

0.126386 0.030206 -0.011899 
0.030206 -0.006909 0.001131 
-0.011899 0.001131 -0.020192 

-0.098987 -0.033087 0.140698 
-0.033087 0.009394 0.025150 
0.140698 0.025150 0.001290 

0.124327 0.047022 -0.025982 
0.047022 0.005587 0.015326 
-0.025982 0.015326 0.016130 

-0.039113 -0.016395 0.128808 
-0.016395 0.042857 0.004690 
0.128808 0.004690 -0.030342 

-0.067797 -0.012302 0.078358 
-0.012302 -0.005671 0.102392 
0.078358 0.102392 0.019160 

0.074974 0.022389 -0.006982 
0.022389 -0.068800 0.109400 
-0.006982 0.109400 -0.012292 

-0.078208 -0.033587 0.104862 
-0.033587 0.023208 0.094815 
0.104862 0.094815 -0.012079 

0.056980 0.046183 0.010091 
0.046183 0.106223 -0.021054 
0.010091 -0.021054 -0.000185 

0.020476 -0.047622 0.083809 
-0.047622 -0.079243 0.117909 
0.083809 0.117909 -0.013933 

0.002816 -0.015840 0.087544 
-0.015840 -0.004551 -0.001616 
0.087544 -0.001616 0.019282 

0.034086 -0.006088 0.077664 
-0.006088 0.054908 0.040265 
0.077664 0.040265 -0.010552 

-0.145142 -0.146579 0.151952 
-0.146579 -0.005986 0.120764 
0.151952 0.120764 0.010241 

0.099615 0.100726 -0.041815 
0.100726 -0.020344 -0.013413 
-0.041815 -0.013413 0.028716 

-0.036163 -0.034867 0.096379 
-0.034867 0.022663 0.073998 
0.096379 0.073998 -0.017830 

-0.021236 0.030912 0.044643 
0.030912 -0.073238 0.068973 
0.044643 0.068973 0.018526 

-0.008779 -0.001039 0.028644 
-0.001039 -0.019112 0.093476 
0.028644 0.093476 0.009199 

0.096304 0.007477 0.015874 
0.007477 0.077087 0.002656 
0.015874 0.002656 -0.012318 

0.027132 0.014838 0.114870 
0.014838 -0.053745 0.061256 
0.114870 0.061256 -0.002870 

-0.018015 -0.042121 0.118462 
-0.042121 -0.116685 0.104170 
0.118462 0.104170 0.023292 

-0.033862 -0.063026 0.102121 
-0.063026 0.012245 0.110796 
0.102121 0.110796 -0.014717 

-0.059980 0.022637 0.087924 
0.022637 -0.067997 0.059176 
0.087924 0.059176 0.019834 

-0.055541 -0.059075 0.041677 
-0.059075 0.014024 0.104193 
0.041677 0.104193 0.006599 

-0.003995 0.004375 0.000034 
0.004375 0.002452 -0.017155 
0.000034 -0.017155 0.007522 

-0.003995 0.003145 0.004906 
0.003145 -0.005148 0.009986 
0.004906 0.009986 0.004147 

0.014217 0.000872 0.003928 
0.000872 -0.004116 0.004672 
0.003928 0.004672 -0.007073 

0.050351 0.028791 0.006517 
0.028791 0.002133 -0.005741 
0.006517 -0.005741 -0.006219 

0.064341 0.032073 0.033885 
0.032073 -0.001487 0.044023 
0.033885 0.044023 -0.020156 

-0.121651 -0.032826 0.120340 
-0.032826 0.044579 0.023021 
0.120340 0.023021 0.001449 

0.073549 0.091063 -0.042153 
0.091063 -0.033013 0.052130 
-0.042153 0.052130 0.010510 

0.017166 -0.007336 0.059095 
-0.007336 0.028294 0.084980 
0.059095 0.084980 -0.018300 

0.059777 0.056984 0.054182 
0.056984 -0.050715 0.030167 
0.054182 0.030167 0.009526 

-0.123722 -0.056231 0.130843 
-0.056231 -0.062963 0.120066 
0.130843 0.120066 0.016283 

0.059836 0.020969 -0.019958 
0.020969 0.013617 0.100180 
-0.019958 0.100180 -0.010934 

-0.059747 -0.014060 0.081810 
-0.014060 -0.019731 0.024211 
0.081810 0.024211 0.011258 

0.006180 0.089310 -0.005300 
0.089310 0.033674 0.008279 
-0.005300 0.008279 -0.000518 

-0.053755 0.010998 0.027945 
0.010998 0.014846 0.101158 
0.027945 0.101158 -0.004670 

0.150852 -0.000134 -0.054102 
-0.000134 0.000328 0.102976 
-0.054102 0.102976 -0.011237 

-0.088731 -0.007521 0.145219 
-0.007521 -0.013219 -0.013357 
0.145219 -0.013357 -0.007815 

0.063732 -0.053385 0.007267 
-0.053385 -0.038567 0.114295 
0.007267 0.114295 0.008683 

0.009276 0.055662 0.083183 
0.055662 -0.034698 -0.006662 
0.083183 -0.006662 -0.000445 

-0.101563 -0.035788 0.100985 
-0.035788 0.019576 0.064467 
0.100985 0.064467 0.017620 

0.107621 0.013317 -0.029660 
0.013317 -0.031382 0.105925 
-0.029660 0.105925 -0.011993 

-0.059124 -0.041723 0.116717 
-0.041723 0.026006 0.014059 
0.116717 0.014059 -0.008071 

0.015968 0.049236 0.030039 
0.049236 0.049119 -0.026545 
0.030039 -0.026545 0.023403 

0.043407 -0.100813 0.043795 
-0.100813 -0.138165 0.138720 
0.043795 0.138720 0.011016 

-0.054852 0.058890 0.096362 
0.058890 0.106257 -0.042801 
0.096362 -0.042801 -0.001948 

-0.069532 -0.101614 0.058845 
-0.101614 0.002966 0.107577 
0.058845 0.107577 0.016472 

-0.006456 0.003343 -0.000099 
0.003343 -0.009546 -0.014293 
-0.000099 -0.014293 0.009343 

-0.006456 0.000807 0.004921 
0.000807 0.001912 0.007006 
0.004921 0.007006 0.004284 

0.007742 0.001489 0.007729 
0.001489 0.002632 0.001892 
0.007729 0.001892 -0.000033 

0.127576 0.030234 -0.009596 
0.030234 -0.007751 -0.000877 
-0.009596 -0.000877 -0.020907 

-0.103426 -0.038621 0.143992 
-0.038621 0.064099 0.029651 
0.143992 0.029651 -0.010274 

0.092784 -0.021544 -0.012175 
-0.021544 -0.009981 0.064706 
-0.012175 0.064706 0.003257 

-0.004171 0.034486 0.113884 
0.034486 0.111856 -0.017235 
0.113884 -0.017235 -0.027527 

0.006249 -0.092263 0.089464 
-0.092263 -0.092570 0.142854 
0.089464 0.142854 0.009408 

-0.060908 -0.020483 0.104373 
-0.020483 0.021556 -0.009491 
0.104373 -0.009491 0.015184 

0.094106 -0.007549 0.021588 
-0.007549 0.005237 0.047106 
0.021588 0.047106 0.006298 

-0.079915 -0.113015 0.145094 
-0.113015 -0.111594 0.118045 
0.145094 0.118045 0.011713 

0.018441 0.046735 0.032665 
0.046735 0.028910 0.006221 
0.032665 0.006221 0.006650 

-0.046233 0.026149 0.082900 
0.026149 -0.057226 0.054181 
0.082900 0.054181 0.009838 

0.070587 0.022487 0.016732 
0.022487 -0.027953 0.108507 
0.016732 0.108507 -0.003414 

-0.119902 -0.078845 0.118907 
-0.078845 -0.032504 0.112752 
0.118907 0.112752 0.001236 

0.041290 0.131196 -0.040533 
0.131196 0.009772 -0.020800 
-0.040533 -0.020800 0.019537 

0.100135 -0.009696 0.009369 
-0.009696 -0.062673 0.086641 
0.009369 0.086641 -0.010678 

-0.121282 0.039707 0.133987 
0.039707 0.039296 -0.029124 
0.133987 -0.029124 0.007732 

0.113861 0.035866 -0.037979 
0.035866 -0.099413 0.108374 
-0.037979 0.108374 0.017329 

-0.073759 -0.026393 0.117700 
-0.026393 0.003885 0.055395 
0.117700 0.055395 -0.008024 

-0.041412 0.047893 0.021457 
0.047893 0.019225 0.040217 
0.021457 0.040217 0.013267 

0.000836 0.048756 -0.003113 
0.048756 0.022794 0.049914 
-0.003113 0.049914 -0.004612 

0.106491 0.077543 -0.010506 
0.077543 0.080977 -0.027686 
-0.010506 -0.027686 -0.010109 

-0.113716 -0.040147 0.130698 
-0.040147 0.023078 0.091395 
0.130698 0.091395 -0.022556 

-0.004483 -0.025302 -0.007765 
-0.025302 -0.124541 0.120189 
-0.007765 0.120189 0.037888 

-0.011527 0.007659 0.010815 
0.007659 0.016844 -0.021848 
0.010815 -0.021848 -0.002294 

-0.011527 0.005500 0.003377 
0.005500 -0.004918 0.010656 
0.003377 0.010656 0.010793 

0.012787 -0.002519 0.002664 
-0.002519 0.000156 0.008231 
0.002664 0.008231 -0.008567 

0.010840 0.059997 0.009616 
0.059997 0.004120 -0.015730 
0.009616 -0.015730 -0.003417 

0.016418 0.028023 0.009397 
0.028023 0.010371 0.096722 
0.009397 0.096722 -0.014904 

0.032601 0.025560 0.026137 
0.025560 0.038518 0.034065 
0.026137 0.034065 -0.012090 

0.001723 -0.050019 0.053037 
-0.050019 -0.104674 0.139115 
0.053037 0.139115 -0.011156 

-0.056507 -0.041274 0.054459 
-0.041274 0.052134 0.016261 
0.054459 0.016261 0.013274 

-0.018122 0.047122 -0.003758 
0.047122 0.086102 0.004336 
-0.003758 0.004336 -0.002721 

0.056531 0.013485 -0.015014 
0.013485 0.036433 0.065425 
-0.015014 0.065425 -0.016996 

0.083139 0.002588 0.026480 
0.002588 -0.006977 0.001189 
0.026480 0.001189 -0.002047 

-0.079051 -0.064457 0.120836 
-0.064457 -0.025814 0.051330 
0.120836 0.051330 0.003304 

0.046346 0.039378 0.021825 
0.039378 0.062548 -0.026491 
0.021825 -0.026491 0.008677 

0.013557 -0.012746 0.081836 
-0.012746 -0.080122 0.099334 
0.081836 0.099334 0.008802 

0.055999 -0.078747 0.070205 
-0.078747 -0.087848 0.094070 
0.070205 0.094070 0.013405 

-0.047963 -0.071112 0.147248 
-0.071112 0.034355 -0.007573 
0.147248 -0.007573 -0.006414 

-0.033153 -0.000713 0.082609 
-0.000713 -0.002928 0.016897 
0.082609 0.016897 0.018064 

0.028610 0.008085 0.047298 
0.008085 0.110886 0.009717 
0.047298 0.009717 -0.021923 

-0.001789 0.001406 0.099152 
0.001406 0.073071 -0.014643 
0.099152 -0.014643 0.001462 

0.037789 -0.052210 0.077432 
-0.052210 -0.090548 0.086481 
0.077432 0.086481 0.008130 

0.006506 -0.058271 0.119743 
-0.058271 0.043180 0.043530 
0.119743 0.043530 -0.019378 

-0.088330 -0.072266 0.142355 
-0.072266 0.023614 0.053230 
0.142355 0.053230 0.004899 

-0.037500 0.031989 0.048465 
0.031989 0.025707 0.070198 
0.048465 0.070198 0.001130 

0.087342 -0.035543 0.004151 
-0.035543 -0.054762 0.113915 
0.004151 0.113915 -0.007074 

-0.107395 -0.005515 0.123212 
-0.005515 0.043911 -0.025265 
0.123212 -0.025265 0.016304 

-0.015844 -0.009518 -0.001442 
-0.009518 -0.001545 0.008775 
-0.001442 0.008775 0.019403 

-0.015844 -0.006087 0.005521 
-0.006087 0.003908 -0.001771 
0.005521 -0.001771 0.003642 

0.003141 0.000086 0.007105 
0.000086 0.000196 0.007207 
0.007105 0.007207 0.000355 

0.113796 0.070999 -0.009885 
0.070999 0.003594 -0.013976 
-0.009885 -0.013976 -0.019457 

-0.098735 -0.013756 0.127814 
-0.013756 -0.051208 0.102332 
0.127814 0.102332 0.003787 

0.035463 -0.018250 -0.008651 
-0.018250 -0.074307 0.096317 
-0.008651 0.096317 0.019333 

-0.039947 0.013793 0.055121 
0.013793 0.024228 0.001383 
0.055121 0.001383 0.017099 

0.044413 0.027730 -0.010599 
0.027730 -0.094021 0.098482 
-0.010599 0.098482 0.005046 

0.032033 0.037055 0.041619 
0.037055 0.006693 0.094039 
0.041619 0.094039 -0.028502 

-0.049240 -0.038683 0.078776 
-0.038683 -0.118941 0.123295 
0.078776 0.123295 0.015534 

0.019242 0.003369 0.014689 
0.003369 0.078753 0.009064 
0.014689 0.009064 -0.008971 

-0.043111 0.002767 0.049548 
0.002767 0.002955 0.014828 
0.049548 0.014828 0.005270 

0.075826 0.056059 -0.020018 
0.056059 -0.007527 0.058004 
-0.020018 0.058004 -0.014345 

-0.019639 -0.027833 0.077313 
-0.027833 0.087691 0.009196 
0.077313 0.009196 -0.015686 

-0.058189 -0.023946 0.049338 
-0.023946 0.064843 -0.008327 
0.049338 -0.008327 0.018682 

0.110953 0.042926 -0.038623 
0.042926 0.017810 0.033904 
-0.038623 0.033904 -0.014496 

-0.006975 0.023569 0.098084 
0.023569 -0.002675 0.012840 
0.098084 0.012840 -0.016368 

-0.069181 -0.034768 0.087406 
-0.034768 -0.058005 0.132159 
0.087406 0.132159 0.004870 

-0.012195 -0.049927 0.018117 
-0.049927 -0.007628 0.080320 
0.018117 0.080320 -0.002916 

0.000414 0.107481 0.012209 
0.107481 0.034434 -0.021484 
0.012209 -0.021484 0.005011 

-0.029910 0.002607 0.011070 
0.002607 -0.113296 0.118428 
0.011070 0.118428 0.020720 

0.089524 0.063947 -0.038262 
0.063947 -0.006399 0.069414 
-0.038262 0.069414 -0.012983 

0.008545 -0.045792 0.079410 
-0.045792 0.016999 0.079930 
0.079410 0.079930 -0.013146 

0.029761 -0.001341 0.065606 
-0.001341 -0.044337 0.056105 
0.065606 0.056105 0.005115 

-0.121087 -0.079772 0.120743 
-0.079772 0.069980 0.041094 
0.120743 0.041094 -0.009609 

-0.008983 -0.004601 -0.005088 
-0.004601 -0.013273 -0.001159 
-0.005088 -0.001159 0.023593 

-0.008983 -0.005859 0.007981 
-0.005859 0.004856 0.002026 
0.007981 0.002026 0.000920 

0.008003 0.001490 0.006005 
0.001490 -0.004597 0.005023 
0.006005 0.005023 -0.001908 

0.089295 0.042804 -0.002955 
0.042804 0.004858 -0.006362 
-0.002955 -0.006362 -0.016541 

-0.046613 -0.003996 0.089496 
-0.003996 -0.041241 0.053185 
0.089496 0.053185 0.008575 

-0.046432 0.015037 0.027830 
0.015037 0.064133 -0.007829 
0.027830 -0.007829 0.022897 

0.051609 0.047141 -0.020332 
0.047141 0.063380 0.039234 
-0.020332 0.039234 -0.016316 

0.070830 0.080050 0.036291 
0.080050 0.023758 -0.016478 
0.036291 -0.016478 -0.003336 

-0.008274 -0.074213 0.099361 
-0.074213 -0.066561 0.117317 
0.099361 0.117317 0.002261 

-0.073688 0.012781 0.087919 
0.012781 0.055789 -0.034455 
0.087919 -0.034455 0.023456 

-0.018966 -0.001160 0.011971 
-0.001160 -0.013457 0.094398 
0.011971 0.094398 0.007407 

0.122775 0.087544 -0.013989 
0.087544 -0.010466 0.021359 
-0.013989 0.021359 -0.017694 

-0.093177 0.012722 0.140540 
0.012722 -0.021954 0.048845 
0.140540 0.048845 0.001887 

-0.042988 -0.013962 0.022798 
-0.013962 -0.082432 0.127929 
0.022798 0.127929 0.024293 

0.105584 0.040587 -0.025773 
0.040587 -0.010166 0.075826 
-0.025773 0.075826 -0.021321 

-0.060740 -0.050836 0.111455 
-0.050836 0.008165 0.047273 
0.111455 0.047273 -0.008923 

0.036562 0.045066 0.017380 
0.045066 0.091415 -0.004988 
0.017380 -0.004988 -0.010205 

-0.058128 0.010547 0.078438 
0.010547 -0.019206 0.047797 
0.078438 0.047797 0.020946 

0.102101 0.011774 -0.010972 
0.011774 -0.023456 0.063072 
-0.010972 0.063072 0.003420 

-0.081294 -0.028998 0.130775 
-0.028998 -0.049331 0.041538 
0.130775 0.041538 -0.005226 

0.062687 0.041984 0.020881 
0.041984 0.149403 -0.035309 
0.020881 -0.035309 0.003866 

-0.078051 -0.024668 0.116188 
-0.024668 -0.095440 0.076563 
0.116188 0.076563 0.019876 

0.099416 -0.010827 -0.008811 
-0.010827 0.024231 0.101941 
-0.008811 0.101941 -0.012405 

-0.100610 -0.010135 0.132689 
-0.010135 -0.005206 0.013105 
0.132689 0.013105 0.001044 

-0.027340 -0.060592 0.010706 
-0.060592 -0.095370 0.128553 
0.010706 0.128553 0.032601 

-0.011499 0.003801 0.008863 
0.003801 0.015390 -0.022590 
0.008863 -0.022590 0.000522 

-0.011499 0.005931 0.003376 
0.005931 -0.010351 0.011494 
0.003376 0.011494 0.009980 

0.011865 0.006377 0.005531 
0.006377 0.006441 -0.000981 
0.005531 -0.000981 -0.002140 

0.109002 0.016070 -0.004502 
0.016070 -0.019232 0.005651 
-0.004502 0.005651 -0.016459 

-0.069071 0.013343 0.116821 
0.013343 0.075532 0.001688 
0.116821 0.001688 -0.013727 

0.088580 0.025371 0.008289 
0.025371 0.006201 0.072973 
0.008289 0.072973 -0.010737 

-0.037853 -0.103404 0.132690 
-0.103404 0.003777 0.101304 
0.132690 0.101304 -0.023012 

-0.003584 -0.028079 0.076525 
-0.028079 0.041108 0.022661 
0.076525 0.022661 -0.007730 

-0.046445 -0.047081 0.080673 
-0.047081 0.006663 0.041330 
0.080673 0.041330 0.013986 

0.063372 0.021993 0.011674 
0.021993 -0.026424 0.052215 
0.011674 0.052215 -0.007576 

0.056120 -0.056917 0.081138 
-0.056917 -0.027222 0.071166 
0.081138 0.071166 -0.012859 

-0.073264 -0.053232 0.143244 
-0.053232 0.046840 0.002879 
0.143244 0.002879 -0.002706 

-0.029696 0.007233 0.055996 
0.007233 0.050883 0.014096 
0.055996 0.014096 0.011960 

0.059171 0.040780 0.025325 
0.040780 0.051285 0.005600 
0.025325 0.005600 0.002860 

-0.073781 -0.032244 0.112826 
-0.032244 0.066412 0.045242 
0.112826 0.045242 -0.006843 

0.032930 0.005484 0.019789 
0.005484 0.058214 0.036795 
0.019789 0.036795 0.001604 

0.022027 -0.045295 0.063742 
-0.045295 -0.076238 0.103190 
0.063742 0.103190 -0.013676 

-0.005987 0.005904 0.078314 
0.005904 0.069176 0.022245 
0.078314 0.022245 -0.009289 

0.009830 -0.029375 0.063874 
-0.029375 0.011017 0.044304 
0.063874 0.044304 -0.003199 

-0.065914 0.099505 0.076925 
0.099505 0.009064 -0.026010 
0.076925 -0.026010 0.014346 

-0.017204 -0.052566 0.011883 
-0.052566 -0.033677 0.159363 
0.011883 0.159363 -0.003649 

0.086271 0.086135 0.000998 
0.086135 0.126179 -0.055365 
0.000998 -0.055365 -0.021811 

-0.072885 -0.063051 0.104145 
-0.063051 -0.133168 0.152257 
0.104145 0.152257 0.014682 

0.022538 0.029662 -0.000633 
0.029662 0.031007 0.008653 
-0.000633 0.008653 0.004079 

-0.056531 0.008837 0.058293 
0.008837 0.093755 -0.004543 
0.058293 -0.004543 0.002469 

-0.007239 -0.003411 0.001362 
-0.003411 -0.023120 0.006817 
0.001362 0.006817 0.011401 

-0.007239 -0.005929 0.005535 
-0.005929 0.008518 -0.001693 
0.005535 -0.001693 0.005219 

0.008039 -0.007417 0.005426 
-0.007417 -0.008900 0.010834 
0.005426 0.010834 -0.004088 

0.065381 0.064195 0.000318 
0.064195 0.023985 -0.021044 
0.000318 -0.021044 -0.010996 

0.000588 -0.006464 0.063146 
-0.006464 -0.083011 0.106357 
0.063146 0.106357 -0.008714 

-0.059296 -0.000322 0.060959 
-0.000322 -0.003927 0.067168 
0.060959 0.067168 0.008433 

0.008212 0.036477 -0.016417 
0.036477 -0.076731 0.105390 
-0.016417 0.105390 0.018778 

-0.020144 0.020492 0.003000 
0.020492 -0.047873 0.067848 
0.003000 0.067848 0.007202 

0.071139 0.062124 -0.027336 
0.062124 0.014270 0.054297 
-0.027336 0.054297 -0.009025 

-0.001740 0.001428 0.063475 
0.001428 -0.024728 0.029341 
0.063475 0.029341 -0.000324 

-0.024354 -0.029143 0.049457 
-0.029143 -0.016972 0.052028 
0.049457 0.052028 0.014917 

0.050259 -0.008904 0.012061 
-0.008904 0.018357 0.048935 
0.012061 0.048935 -0.013374 

0.021503 -0.003734 0.071824 
-0.003734 -0.037791 0.073307 
0.071824 0.073307 -0.011498 

-0.039881 -0.031199 0.094534 
-0.031199 0.013197 0.074119 
0.094534 0.074119 -0.012836 

-0.059764 0.017127 0.047772 
0.017127 -0.105875 0.125893 
0.047772 0.125893 0.020921 

0.027108 0.008571 -0.013376 
0.008571 0.023189 0.092825 
-0.013376 0.092825 -0.008150 

0.072557 0.062115 0.018809 
0.062115 0.028198 -0.002734 
0.018809 -0.002734 -0.007356 

-0.005233 -0.064075 0.091936 
-0.064075 -0.008980 0.108706 
0.091936 0.108706 -0.020148 

0.032252 -0.025199 0.065236 
-0.025199 -0.052988 0.065370 
0.065236 0.065370 0.000971 

-0.053063 0.003223 0.116442 
0.003223 0.061006 -0.017462 
0.116442 -0.017462 -0.007131 

-0.050903 -0.008818 0.068864 
-0.008818 -0.004950 0.084106 
0.068864 0.084106 0.027683 

0.073645 -0.014757 0.006640 
-0.014757 -0.108055 0.126899 
0.006640 0.126899 -0.008342 

-0.000415 -0.015225 0.095394 
-0.015225 0.081982 -0.013252 
0.095394 -0.013252 -0.002367 

0.004023 -0.003540 0.080686 
-0.003540 -0.044275 0.053152 
0.080686 0.053152 0.000227 

-0.102504 -0.071032 0.104335 
-0.071032 -0.086798 0.130973 
0.104335 0.130973 0.008938 

-0.012275 0.011694 -0.001140 
0.011694 0.024747 -0.026704 
-0.001140 -0.026704 0.017729 

-0.012275 0.009007 0.006446 
0.009007 -0.006388 0.012850 
0.006446 0.012850 0.004123 

0.007615 0.009708 0.004466 
0.009708 0.010382 -0.003826 
0.004466 -0.003826 -0.004624 

0.049990 0.013338 0.001405 
0.013338 -0.024214 0.011556 
0.001405 0.011556 -0.008828 

-0.008430 0.055305 0.052228 
0.055305 0.111214 -0.018136 
0.052228 -0.018136 -0.007014 

0.084219 0.019792 0.012246 
0.019792 -0.097754 0.083032 
0.012246 0.083032 0.008306 

-0.056566 -0.026423 0.118588 
-0.026423 0.059395 0.012799 
0.118588 0.012799 0.004507 

0.083207 -0.004276 0.037162 
-0.004276 0.069959 -0.000819 
0.037162 -0.000819 -0.002853 

-0.103107 -0.117816 0.159334 
-0.117816 0.047337 0.062121 
0.159334 0.062121 -0.011107 

-0.045034 0.028961 0.026275 
0.028961 0.016621 -0.002958 
0.026275 -0.002958 0.022755 

-0.001701 0.071246 -0.008184 
0.071246 0.099423 0.016558 
-0.008184 0.016558 -0.004005 

0.066831 0.024818 -0.011022 
0.024818 -0.042325 0.069865 
-0.011022 0.069865 -0.008759 

-0.064046 0.022161 0.071410 
0.022161 0.096772 0.008587 
0.071410 0.008587 -0.006693 

0.127092 0.003081 -0.031622 
0.003081 -0.043952 0.090748 
-0.031622 0.090748 -0.000007 

-0.012060 -0.013051 0.129680 
-0.013051 0.112575 -0.021558 
0.129680 -0.021558 -0.018837 

-0.049932 -0.094374 0.102564 
-0.094374 -0.138276 0.133442 
0.102564 0.133442 0.030655 

-0.028120 0.035093 0.049085 
0.035093 -0.003798 0.041269 
0.049085 0.041269 0.007065 

0.087626 -0.040988 0.007269 
-0.040988 -0.093215 0.112184 
0.007269 0.112184 0.005646 

-0.105454 -0.019298 0.117995 
-0.019298 0.013588 -0.001628 
0.117995 -0.001628 0.011268 

0.037251 0.024655 -0.014398 
0.024655 0.079693 0.034221 
-0.014398 0.034221 -0.005258 

0.045321 -0.001944 0.038826 
-0.001944 -0.036352 0.085857 
0.038826 0.085857 -0.013826 

-0.065065 0.021311 0.091552 
0.021311 0.094068 -0.029594 
0.091552 -0.029594 0.011305 

0.011426 -0.003790 0.009586 
-0.003790 -0.038835 0.108918 
0.009586 0.108918 -0.001002 

0.071799 0.038925 0.017623 
0.038925 -0.016150 0.006718 
0.017623 0.006718 -0.008590 

-0.107041 -0.029846 0.115592 
-0.029846 0.074169 0.008922 
0.115592 0.008922 0.011658 

-0.017649 -0.010844 0.000897 
-0.010844 -0.013045 0.005812 
0.000897 0.005812 0.019766 

-0.017649 -0.007860 0.005964 
-0.007860 0.009973 -0.001136 
0.005964 -0.001136 0.004625 

0.011109 -0.006781 0.004337 
-0.006781 -0.009776 0.013201 
0.004337 0.013201 -0.005133 

0.073770 0.077104 0.001614 
0.077104 0.018563 -0.027152 
0.001614 -0.027152 -0.008142 

0.051130 -0.047340 0.061147 
-0.047340 -0.112487 0.142715 
0.061147 0.142715 -0.021983 

-0.039959 0.027522 0.106770 
0.027522 0.132038 -0.045215 
0.106770 -0.045215 -0.007058 

-0.078361 -0.023281 0.063364 
-0.023281 0.017762 0.085953 
0.063364 0.085953 0.002723 

-0.022647 0.073431 -0.013031 
0.073431 0.014831 0.070633 
-0.013031 0.070633 -0.001649 

0.090838 0.023892 -0.039832 
0.023892 -0.028054 0.114536 
-0.039832 0.114536 -0.016866 

0.029811 0.023240 0.069943 
0.023240 0.036611 0.004633 
0.069943 0.004633 -0.022595 

-0.020904 -0.105070 0.102063 
-0.105070 0.000699 0.126877 
0.102063 0.126877 -0.016033 

-0.039384 0.053653 0.078553 
0.053653 0.011015 0.008975 
0.078553 0.008975 0.014691 

0.037233 -0.039411 0.027298 
-0.039411 -0.110304 0.146704 
0.027298 0.146704 -0.001082 

-0.082986 -0.001901 0.090622 
-0.001901 0.018507 0.031731 
0.090622 0.031731 0.009638 

0.014166 -0.032928 -0.017039 
-0.032928 -0.119680 0.155639 
-0.017039 0.155639 0.011983 

0.067057 0.018916 0.001473 
0.018916 0.089415 -0.040076 
0.001473 -0.040076 -0.005372 

-0.021745 -0.052673 0.079365 
-0.052673 -0.018674 0.041482 
0.079365 0.041482 -0.000462 

-0.011890 -0.007990 0.045086 
-0.007990 0.055309 -0.000322 
0.045086 -0.000322 0.011119 

-0.032147 0.026521 0.041058 
0.026521 0.050097 0.008695 
0.041058 0.008695 -0.003231 

0.135598 -0.001649 -0.009157 
-0.001649 -0.038071 0.120134 
-0.009157 0.120134 -0.022722 

-0.093210 -0.061203 0.158294 
-0.061203 0.001859 0.043875 
0.158294 0.043875 -0.005074 

0.063252 0.008686 0.012329 
0.008686 -0.054329 0.103239 
0.012329 0.103239 -0.002059 

0.001592 -0.041852 0.099103 
-0.041852 -0.024539 0.055821 
0.099103 0.055821 -0.001009 

-0.017053 0.030844 0.089220 
0.030844 -0.003091 0.001537 
0.089220 0.001537 0.003559 

-0.096345 -0.085069 0.092087 
-0.085069 -0.032565 0.114341 
0.092087 0.114341 0.005588 

-0.011680 0.000944 -0.000234 
0.000944 0.009560 -0.019218 
-0.000234 -0.019218 0.017355 

-0.011680 0.001620 0.006745 
0.001620 -0.003922 0.010804 
0.006745 0.010804 0.004065 

0.005089 0.004485 0.007574 
0.004485 -0.000045 -0.001961 
0.007574 -0.001961 0.000084 

0.109124 0.014645 -0.007277 
0.014645 -0.005236 0.007010 
-0.007277 0.007010 -0.018107 

-0.034678 0.028765 0.103110 
0.028765 0.013042 -0.004549 
0.103110 -0.004549 0.007387 

-0.026725 -0.018585 0.048006 
-0.018585 -0.010765 0.117150 
0.048006 0.117150 -0.006906 

0.082158 -0.020773 0.022599 
-0.020773 -0.009410 0.082891 
0.022599 0.082891 -0.010062 

0.007596 -0.008263 0.110841 
-0.008263 -0.069910 0.085501 
0.110841 0.085501 -0.005811 

-0.123591 -0.005984 0.115332 
-0.005984 -0.082374 0.084735 
0.115332 0.084735 0.036325 

-0.011985 0.103934 -0.023988 
0.103934 0.069692 0.036328 
-0.023988 0.036328 0.009764 

0.089348 0.012960 -0.026396 
0.012960 -0.009821 0.110582 
-0.026396 0.110582 -0.015613 

-0.046592 -0.025454 0.087427 
-0.025454 0.034532 0.024101 
0.087427 0.024101 -0.014757 

-0.045559 0.029414 0.031999 
0.029414 0.018990 -0.000431 
0.031999 -0.000431 0.037217 

0.084524 0.011222 -0.026299 
0.011222 0.047895 0.055097 
-0.026299 0.055097 -0.020036 

-0.078604 0.027374 0.093776 
0.027374 0.087339 -0.020863 
0.093776 -0.020863 0.004721 

0.005831 0.017821 -0.009132 
0.017821 -0.030253 0.097063 
-0.009132 0.097063 0.004031 

0.029938 0.037781 0.002333 
0.037781 -0.016797 0.026186 
0.002333 0.026186 -0.006459 

-0.045068 0.016623 0.043044 
0.016623 0.027820 0.068410 
0.043044 0.068410 -0.008050 

0.079064 0.039014 -0.018708 
0.039014 -0.062366 0.071946 
-0.018708 0.071946 -0.003303 

-0.078430 -0.022313 0.081158 
-0.022313 -0.041028 0.076297 
0.081158 0.076297 0.014265 

0.124850 0.074381 -0.051571 
0.074381 -0.044896 0.064070 
-0.051571 0.064070 0.004841 

-0.014891 -0.028285 0.105557 
-0.028285 -0.036176 0.043215 
0.105557 0.043215 -0.000419 

-0.015915 -0.037524 0.066431 
-0.037524 -0.015952 0.043164 
0.066431 0.043164 0.011196 

-0.022653 -0.005245 0.064442 
-0.005245 0.068389 -0.010213 
0.064442 -0.010213 -0.004792 

-0.061863 -0.069763 0.063720 
-0.069763 -0.015230 0.061951 
0.063720 0.061951 0.021283 

-0.010327 -0.004958 0.002653 
-0.004958 -0.005657 -0.005095 
0.002653 -0.005095 0.009619 

-0.010327 -0.003984 0.004369 
-0.003984 0.000368 0.004190 
0.004369 0.004190 0.005883 

0.011008 0.001327 0.003031 
0.001327 0.002151 0.000916 
0.003031 0.000916 -0.004885 

0.046032 0.019366 0.002520 
0.019366 -0.011674 0.001143 
0.002520 0.001143 -0.005823 

-0.006107 0.017215 0.052151 
0.017215 0.107865 0.009692 
0.052151 0.009692 -0.027836 

-0.027607 -0.002889 0.041747 
-0.002889 -0.074638 0.089318 
0.041747 0.089318 0.024060 

0.114226 0.023557 -0.021135 
0.023557 -0.066128 0.089313 
-0.021135 0.089313 0.002106 

0.033927 -0.023358 0.094972 
-0.023358 0.024220 0.021079 
0.094972 0.021079 -0.014385 

-0.016305 -0.009156 0.117962 
-0.009156 0.073319 -0.022649 
0.117962 -0.022649 -0.000869 

-0.025337 -0.008275 0.107994 
-0.008275 -0.004850 0.102188 
0.107994 0.102188 -0.004069 

-0.063037 -0.027594 0.097096 
-0.027594 -0.066322 0.106199 
0.097096 0.106199 0.020559 

-0.008065 -0.024483 0.027768 
-0.024483 -0.029768 0.070533 
0.027768 0.070533 0.010404 

0.027244 0.073700 0.026948 
0.073700 0.038643 0.024013 
0.026948 0.024013 -0.019238 

-0.000891 0.016927 0.058259 
0.016927 -0.056895 0.118388 
0.058259 0.118388 -0.000538 

0.023016 0.000150 0.043400 
0.000150 -0.082291 0.109409 
0.043400 0.109409 -0.011429 

-0.054369 -0.023553 0.084179 
-0.023553 0.062087 0.034286 
0.084179 0.034286 0.001264 

0.029133 0.070090 0.018053 
0.070090 0.031499 0.000478 
0.018053 0.000478 0.002233 

-0.019530 -0.015380 0.059896 
-0.015380 -0.010730 0.092772 
0.059896 0.092772 -0.007784 

-0.004137 0.063133 0.036586 
0.063133 0.023169 -0.005337 
0.036586 -0.005337 0.014261 

0.116159 -0.020270 0.016984 
-0.020270 0.029722 0.040172 
0.016984 0.040172 -0.015654 

-0.088181 -0.083378 0.163386 
-0.083378 0.056734 0.008659 
0.163386 0.008659 -0.008016 

-0.002093 0.027621 0.037817 
0.027621 0.019840 0.016044 
0.037817 0.016044 0.014909 

-0.063336 -0.018591 0.060753 
-0.018591 -0.023809 0.027966 
0.060753 0.027966 0.014404 

0.002938 0.032436 -0.008548 
0.032436 0.014707 0.059948 
-0.008548 0.059948 -0.007692 

-0.014190 0.014342 0.013166 
0.014342 -0.003252 0.049027 
0.013166 0.049027 0.000725 

-0.008378 -0.001024 0.006330 
-0.001024 0.002416 -0.006643 
0.006330 -0.006643 0.004990 

-0.008378 -0.000272 0.003334 
-0.000272 -0.001800 0.005448 
0.003334 0.005448 0.006690 

0.009217 -0.005603 0.000813 
-0.005603 0.000528 0.009351 
0.000813 0.009351 -0.006460 

-0.007518 0.075163 0.008331 
0.075163 -0.002256 -0.021829 
0.008331 -0.021829 0.002234 

0.051794 -0.014201 -0.011882 
-0.014201 -0.002964 0.127506 
-0.011882 0.127506 -0.022337 

0.090632 0.034676 0.026475 
0.034676 -0.028804 0.015368 
0.026475 0.015368 -0.005637 

-0.020592 -0.022185 0.108687 
-0.022185 0.038135 0.022537 
0.108687 0.022537 -0.009248 

-0.080426 0.021631 0.080122 
0.021631 -0.005802 0.062001 
0.080122 0.062001 0.010432 

0.104484 0.045159 -0.022115 
0.045159 -0.062494 0.090507 
-0.022115 0.090507 -0.005341 

-0.019242 -0.063875 0.109255 
-0.063875 -0.066286 0.106070 
0.109255 0.106070 -0.009898 

-0.072480 -0.052238 0.086019 
-0.052238 0.024111 0.025051 
0.086019 0.025051 0.027860 

0.072644 0.018768 0.003898 
0.018768 0.017879 0.027087 
0.003898 0.027087 0.004260 

0.012346 -0.010390 0.092927 
-0.010390 -0.095245 0.084761 
0.092927 0.084761 -0.004784 

0.004871 -0.068993 0.094821 
-0.068993 0.070604 0.040518 
0.094821 0.040518 -0.001710 

-0.034711 0.010788 0.102974 
0.010788 -0.009480 0.005146 
0.102974 0.005146 0.022965 

0.001636 -0.034323 0.055797 
-0.034323 -0.106231 0.128264 
0.055797 0.128264 0.013133 

0.034508 0.003829 0.067761 
0.003829 0.031459 0.034238 
0.067761 0.034238 -0.014752 

0.006728 -0.090924 0.106989 
-0.090924 -0.083596 0.092944 
0.106989 0.092944 0.003282 

-0.106285 0.001118 0.118428 
0.001118 -0.040923 0.036992 
0.118428 0.036992 0.016101 

-0.021444 0.003050 0.004868 
0.003050 -0.003523 0.079183 
0.004868 0.079183 0.014609 

0.114614 -0.006893 -0.020500 
-0.006893 -0.008716 0.082292 
-0.020500 0.082292 -0.027815 

-0.127358 -0.088166 0.137867 
-0.088166 -0.003632 0.035705 
0.137867 0.035705 -0.000945 

0.094701 0.085374 -0.036342 
0.085374 0.067169 -0.011662 
-0.036342 -0.011662 0.002158 

0.028185 -0.026460 0.086847 
-0.026460 -0.093421 0.087600 
0.086847 0.087600 -0.008291 

-0.123310 -0.101894 0.128062 
-0.101894 0.028348 0.045572 
0.128062 0.045572 0.013268 

-0.006875 -0.001595 -0.008079 
-0.001595 -0.002356 -0.003857 
-0.008079 -0.003857 0.019035 

-0.006875 -0.002581 0.005896 
-0.002581 0.001522 0.003467 
0.005896 0.003467 -0.000525 

-0.000484 -0.006954 0.003595 
-0.006954 -0.004927 0.010455 
0.003595 0.010455 0.001252 

0.066549 0.080114 -0.005624 
0.080114 0.012355 -0.024524 
-0.005624 -0.024524 -0.007852 

0.056643 -0.077110 0.050088 
-0.077110 -0.136235 0.137058 
0.050088 0.137058 0.002842 

-0.039578 0.006605 0.094365 
0.006605 0.009790 0.003464 
0.094365 0.003464 0.000107 

0.067300 -0.028066 0.022861 
-0.028066 -0.072424 0.093939 
0.022861 0.093939 -0.003016 

-0.048857 -0.019685 0.104819 
-0.019685 -0.085796 0.057731 
0.104819 0.057731 0.009570 

-0.011253 0.042328 0.046121 
0.042328 0.095413 0.001379 
0.046121 0.001379 0.007081 

-0.049264 0.007583 0.053070 
0.007583 -0.076366 0.054039 
0.053070 0.054039 0.026325 

0.022011 -0.006155 -0.006289 
-0.006155 -0.027453 0.072008 
-0.006289 0.072008 0.004051 

0.062621 -0.020485 0.018872 
-0.020485 -0.009395 0.060136 
0.018872 0.060136 -0.021777 

-0.076352 0.075963 0.091179 
0.075963 0.038889 -0.031452 
0.091179 -0.031452 0.010215 

0.033974 -0.025261 -0.015829 
-0.025261 -0.100382 0.149674 
-0.015829 0.149674 0.009173 

0.039712 0.018838 0.030828 
0.018838 0.061196 0.002352 
0.030828 0.002352 -0.026310 

-0.041700 0.011455 0.082120 
0.011455 0.074910 -0.013779 
0.082120 -0.013779 0.003227 

-0.054811 -0.016256 0.039239 
-0.016256 -0.057334 0.082428 
0.039239 0.082428 0.021440 

0.087388 0.015738 -0.029405 
0.015738 0.001824 0.005121 
-0.029405 0.005121 0.004688 

-0.058220 -0.010895 0.091575 
-0.010895 0.041476 -0.013205 
0.091575 -0.013205 -0.004826 

0.011188 0.012660 0.014650 
0.012660 -0.082991 0.074635 
0.014650 0.074635 0.021601 

-0.060379 -0.031548 0.047462 
-0.031548 0.022038 0.060564 
0.047462 0.060564 0.003425 

0.104717 0.099159 -0.047568 
0.099159 -0.052197 0.035019 
-0.047568 0.035019 0.002197 

-0.016512 -0.031321 0.078549 
-0.031321 -0.087885 0.091592 
0.078549 0.091592 -0.014584 

-0.084875 0.047920 0.058754 
0.047920 0.131664 -0.038777 
0.058754 -0.038777 0.008807 

0.008786 -0.018908 -0.026779 
-0.018908 -0.018452 0.080073 
-0.026779 0.080073 0.007973 

-0.008847 -0.002508 0.010136 
-0.002508 -0.001757 -0.010370 
0.010136 -0.010370 -0.001395 

-0.008847 -0.001106 0.002135 
-0.001106 0.001167 0.006276 
0.002135 0.006276 0.007819 

0.000345 0.003087 0.001314 
0.003087 0.001919 -0.001268 
0.001314 -0.001268 0.000628 

0.030025 0.007368 -0.001607 
0.007368 -0.005389 0.003907 
-0.001607 0.003907 -0.003583 

0.038390 0.000321 0.015198 
0.000321 -0.016828 -0.004995 
0.015198 -0.004995 0.011009 

-0.014532 -0.040051 0.047397 
-0.040051 -0.043231 0.037937 
0.047397 0.037937 0.006249 

0.097076 -0.038497 0.010486 
-0.038497 -0.035823 0.021214 
0.010486 0.021214 0.009366 

0.006780 -0.005157 0.111961 
-0.005157 0.004096 -0.027713 
0.111961 -0.027713 -0.006767 

-0.072601 -0.149537 0.119361 
-0.149537 -0.128632 0.146942 
0.119361 0.146942 0.011643 

-0.033405 0.000181 0.048743 
0.000181 0.016457 -0.028002 
0.048743 -0.028002 0.025540 

0.052721 -0.021548 0.017208 
-0.021548 -0.069338 0.062586 
0.017208 0.062586 0.011722 

0.024837 -0.064378 0.071722 
-0.064378 -0.070880 0.067469 
0.071722 0.067469 -0.000575 

-0.004361 -0.056026 0.093230 
-0.056026 -0.040874 0.042822 
0.093230 0.042822 -0.002663 

0.008381 -0.040763 0.084175 
-0.040763 -0.050938 0.034448 
0.084175 0.034448 0.023754 

-0.044849 -0.063244 0.096590 
-0.063244 -0.084326 0.094316 
0.096590 0.094316 0.007737 

0.035982 -0.072350 0.041498 
-0.072350 -0.092040 0.105620 
0.041498 0.105620 -0.001144 

-0.048364 -0.066277 0.098651 
-0.066277 -0.029505 0.020058 
0.098651 0.020058 0.012219 

-0.064028 -0.023026 0.051504 
-0.023026 -0.019705 0.024768 
0.051504 0.024768 0.020018 

0.075681 -0.019320 -0.022125 
-0.019320 -0.054084 0.061022 
-0.022125 0.061022 -0.005255 

-0.034984 0.004942 0.079229 
0.004942 -0.010375 -0.010049 
0.079229 -0.010049 0.009757 

0.122870 -0.078507 0.004271 
-0.078507 -0.116207 0.115046 
0.004271 0.115046 0.003959 

-0.039856 -0.089060 0.154110 
-0.089060 -0.002799 -0.009801 
0.154110 -0.009801 -0.005759 

-0.027933 0.000260 0.088246 
0.000260 0.005224 -0.015426 
0.088246 -0.015426 0.025514 

-0.028250 -0.085176 0.072901 
-0.085176 -0.120505 0.140389 
0.072901 0.140389 -0.000044 

-0.061501 -0.078067 0.062353 
-0.078067 -0.057724 0.059325 
0.062353 0.059325 0.023525 

-0.006042 -0.000300 -0.002128 
-0.000300 0.010350 -0.008839 
-0.002128 -0.008839 0.007546 

-0.006042 -0.000532 0.003565 
-0.000532 -0.002920 0.006117 
0.003565 0.006117 0.002189 

0.001470 0.000546 -0.000475 
0.000546 -0.000227 0.000304 
-0.000475 0.000304 -0.000580 

-0.000759 0.001063 0.001093 
0.001063 -0.000332 -0.000009 
0.001093 -0.000009 0.000838 

0.000201 0.002689 -0.001866 
0.002689 -0.001598 0.001545 
-0.001866 0.001545 -0.001576 

0.014123 -0.000053 -0.008126 
-0.000053 -0.006774 -0.000736 
-0.008126 -0.000736 0.005066 

-0.017811 -0.005470 0.005047 
-0.005470 -0.002145 -0.000106 
0.005047 -0.000106 0.002500 

0.002619 0.010496 -0.020323 
0.010496 -0.002270 0.005765 
-0.020323 0.005765 -0.001612 

0.014286 0.006022 -0.019933 
0.006022 -0.010613 -0.008784 
-0.019933 -0.008784 0.021424 

-0.002672 -0.010489 -0.001833 
-0.010489 -0.015059 0.014088 
-0.001833 0.014088 -0.002950 

-0.003794 -0.002962 -0.000743 
-0.002962 -0.004796 -0.001937 
-0.000743 -0.001937 0.009926 

-0.001585 0.000234 -0.009532 
0.000234 -0.006182 -0.001842 
-0.009532 -0.001842 0.011836 

-0.000245 0.002147 -0.013010 
0.002147 -0.007086 0.001856 
-0.013010 0.001856 0.008660 

-0.002508 0.003141 -0.012113 
0.003141 -0.007307 0.002675 
-0.012113 0.002675 0.004757 

0.013100 0.001670 -0.016608 
0.001670 -0.012506 -0.000779 
-0.016608 -0.000779 0.015669 

-0.010168 -0.008763 -0.000040 
-0.008763 -0.011367 -0.002149 
-0.000040 -0.002149 0.018886 

0.000103 0.001264 -0.014383 
0.001264 -0.006155 0.004107 
-0.014383 0.004107 0.004999 

0.009352 -0.002848 -0.007938 
-0.002848 -0.009434 0.005048 
-0.007938 0.005048 0.003089 

-0.018499 -0.004595 0.010343 
-0.004595 -0.002307 -0.003161 
0.010343 -0.003161 0.011420 

0.019626 0.004603 -0.016081 
0.004603 -0.008354 0.007158 
-0.016081 0.007158 -0.000538 

-0.014949 -0.009229 0.005506 
-0.009229 -0.006800 -0.008181 
0.005506 -0.008181 0.017387 

-0.000066 0.006770 -0.024976 
0.006770 -0.002160 0.004702 
-0.024976 0.004702 0.001627 

0.000956 0.006926 -0.014362 
0.006926 -0.005587 0.007534 
-0.014362 0.007534 -0.004266 

0.009439 0.001676 -0.012147 
0.001676 -0.011726 -0.007294 
-0.012147 -0.007294 0.023689 

0.004717 -0.010289 -0.005761 
-0.010289 -0.013786 0.003144 
-0.005761 0.003144 0.009265 

-0.006506 -0.008224 0.005493 
-0.008224 -0.003823 0.005403 
0.005493 0.005403 -0.001242 

-0.006506 -0.004775 0.001032 
-0.004775 0.001114 0.000073 
0.001032 0.000073 0.004285 

-0.000803 0.000493 0.000112 
0.000493 -0.000227 -0.000121 
0.000112 -0.000121 0.000514 

0.000770 0.000429 -0.000631 
0.000429 -0.000332 0.000258 
-0.000631 0.000258 0.000056 

0.003460 0.000101 0.000784 
0.000101 -0.001598 0.001271 
0.000784 0.001271 0.001740 

-0.003675 0.002261 0.004297 
0.002261 -0.006774 0.001316 
0.004297 0.001316 0.000585 

0.005202 -0.005533 -0.001578 
-0.005533 -0.002145 0.002346 
-0.001578 0.002346 0.001786 

0.000454 0.006325 0.009811 
0.006325 -0.002270 0.002581 
0.009811 0.002581 0.005268 

-0.000403 0.003799 0.009247 
0.003799 -0.010613 0.005277 
0.009247 0.005277 -0.001534 

0.002319 -0.005358 0.002331 
-0.005358 -0.015059 0.001640 
0.002331 0.001640 0.010343 

0.000194 -0.003655 0.002980 
-0.003655 -0.004796 0.005172 
0.002980 0.005172 0.002789 

-0.000815 -0.000218 0.005736 
-0.000218 -0.006182 0.004233 
0.005736 0.004233 0.002093 

-0.001341 0.002037 0.007004 
0.002037 -0.007086 0.003322 
0.007004 0.003322 0.003722 

0.002947 0.000542 0.006577 
0.000542 -0.007307 0.004555 
0.006577 0.004555 0.005713 

-0.001852 0.002239 0.009091 
0.002239 -0.012506 0.004748 
0.009091 0.004748 0.003033 

0.004323 -0.006157 0.001971 
-0.006157 -0.011367 0.005088 
0.001971 0.005088 0.001853 

-0.001976 -0.000375 0.008202 
-0.000375 -0.006155 0.004338 
0.008202 0.004338 0.005795 

-0.006262 0.000716 0.005669 
0.000716 -0.009434 0.001826 
0.005669 0.001826 0.006200 

0.006735 -0.007619 -0.003216 
-0.007619 -0.002307 0.004394 
-0.003216 0.004394 0.000891 

-0.005772 0.005380 0.008730 
0.005380 -0.008354 0.001789 
0.008730 0.001789 0.006149 

0.005722 -0.006909 -0.000754 
-0.006909 -0.006800 0.004558 
-0.000754 0.004558 -0.001947 

-0.004854 0.005057 0.011910 
0.005057 -0.002160 0.002497 
0.011910 0.002497 0.004349 

0.001707 0.003856 0.007395 
0.003856 -0.005587 0.001950 
0.007395 0.001950 0.007956 

0.003689 0.000646 0.006672 
0.000646 -0.011726 0.005921 
0.006672 0.005921 -0.001275 

0.000875 -0.005307 0.004450 
-0.005307 -0.013786 0.003424 
0.004450 0.003424 0.004527 

0.000392 -0.005755 0.000880 
-0.005755 -0.003823 0.001696 
0.000880 0.001696 0.004316 

0.000392 -0.002307 0.002373 
-0.002307 0.001114 0.001787 
0.002373 0.001787 0.004589 

