# vtk DataFile Version 2.0
Cube example
ASCII
DATASET UNSTRUCTURED_GRID
POINTS 8 float 
0.00 0.00 0.00 
1.00 0.00 0.00 
0.00 1.00 0.00 
1.00 1.00 0.00 
-0.00 0.78 1.00 
1.00 0.78 1.00 
0.00 1.78 1.00 
1.00 1.78 1.00 
CELLS 1 9 
8 0 1 3 2 4 5 7 6 
CELL_TYPES 1 
12 
POINT_DATA 8 
VECTORS Displacements float
0.00 0.00 0.00 
0.00 0.00 0.00 
0.00 0.00 0.00 
0.00 0.00 0.00 
-0.00 0.78 0.00 
-0.00 0.78 0.00 
0.00 0.78 0.00 
0.00 0.78 0.00 
VECTORS Forces float
0.00 0.00 0.00 
0.00 0.00 0.00 
0.00 0.00 0.00 
0.00 0.00 0.00 
0.00 7.50 0.00 
0.00 7.50 0.00 
0.00 7.50 0.00 
0.00 7.50 0.00 
TENSORS Stress float 
0.0 0.0 -0.0 
 0.0 0.0 30.0 
 30.0 30.0 0.0 

-0.0 -0.0 -0.0 
 -0.0 -0.0 30.0 
 30.0 30.0 -0.0 

0.0 0.0 0.0 
 0.0 0.0 30.0 
 30.0 30.0 0.0 

0.0 -0.0 0.0 
 -0.0 0.0 30.0 
 30.0 30.0 0.0 

0.0 0.0 -0.0 
 0.0 0.0 30.0 
 30.0 30.0 0.0 

-0.0 0.0 -0.0 
 0.0 -0.0 30.0 
 30.0 30.0 -0.0 

0.0 0.0 0.0 
 0.0 0.0 30.0 
 30.0 30.0 0.0 

0.0 0.0 0.0 
 0.0 0.0 30.0 
 30.0 30.0 0.0 

TENSORS Strain float 
0.0 0.0 -0.0 
 0.0 0.0 0.4 
 0.4 0.4 0.0 

-0.0 -0.0 -0.0 
 -0.0 0.0 0.4 
 0.4 0.4 0.0 

0.0 0.0 0.0 
 0.0 0.0 0.4 
 0.4 0.4 0.0 

0.0 -0.0 0.0 
 -0.0 0.0 0.4 
 0.4 0.4 0.0 

0.0 0.0 -0.0 
 0.0 0.0 0.4 
 0.4 0.4 0.0 

-0.0 0.0 -0.0 
 0.0 0.0 0.4 
 0.4 0.4 0.0 

0.0 0.0 0.0 
 0.0 0.0 0.4 
 0.4 0.4 0.0 

0.0 0.0 0.0 
 0.0 0.0 0.4 
 0.4 0.4 0.0 

